[TITLE]
;;Project Title/Notes
INP file created on 2026/5/10 16:06:32 by admini with inpPINS version 0.0.3.0
Title/Notes:
Dry baseline correction: duplicate dry-weather inflow at J03262121 was removed because this flow had already been represented at J03260047.

[OPTIONS]
;;Option             Value
FLOW_UNITS           LPS
INFILTRATION         HORTON
FLOW_ROUTING         DYNWAVE
LINK_OFFSETS         DEPTH
MIN_SLOPE            0
ALLOW_PONDING        YES
SKIP_STEADY_STATE    NO

START_DATE           05/10/2026
START_TIME           00:00:00
REPORT_START_DATE    05/10/2026
REPORT_START_TIME    00:00:00
END_DATE             05/11/2026
END_TIME             00:00:00
SWEEP_START          01/01
SWEEP_END            12/31
DRY_DAYS             0
REPORT_STEP          00:10:00
WET_STEP             00:02:00
DRY_STEP             01:00:00
ROUTING_STEP         0:00:01 
RULE_STEP            00:01:00

INERTIAL_DAMPING     FULL
NORMAL_FLOW_LIMITED  BOTH
FORCE_MAIN_EQUATION  D-W
VARIABLE_STEP        0.75
LENGTHENING_STEP     5
MIN_SURFAREA         1.167
MAX_TRIALS           20
HEAD_TOLERANCE       0.002
SYS_FLOW_TOL         5
LAT_FLOW_TOL         5
MINIMUM_STEP         0.5
THREADS              1

[EVAPORATION]
;;Data Source    Parameters
;;-------------- ----------------
CONSTANT         0.0
DRY_ONLY         NO

[RAINGAGES]
;;Name           Format    Interval SCF      Source    
;;-------------- --------- ------ ------ ----------
RG1              INTENSITY 0:05     1.0      TIMESERIES  Rain_1Y

[SUBCATCHMENTS]
;;Name           Rain Gage        Outlet           Area     %Imperv  Width    %Slope   CurbLen  SnowPack        
;;-------------- ---------------- ---------------- -------- -------- -------- -------- -------- ----------------
S1               RG1              J03260174        16.2847482757 75       500      0.3      0                        
S2               RG1              J03235088        22.7461278276 60       500      0.3      0                        
S3               RG1              J03260431        17.4458194373 55       500      0.3      0                        
S4               RG1              G03160066        4.67866914291 65       500      0.3      0                        
S5               RG1              J03193093        4.8474392582 70       500      0.3      0                        
S6               RG1              J03193130        5.66224950151 65       500      0.3      0                        

[SUBAREAS]
;;Subcatchment   N-Imperv   N-Perv     S-Imperv   S-Perv     PctZero    RouteTo    PctRouted 
;;-------------- ---------- ---------- ---------- ---------- ---------- ---------- ----------
S1               0.01       0.1        0.05       0.05       25         OUTLET    
S2               0.01       0.1        0.05       0.05       25         OUTLET    
S3               0.01       0.1        0.05       0.05       25         OUTLET    
S4               0.01       0.1        0.05       0.05       25         OUTLET    
S5               0.01       0.1        0.05       0.05       25         OUTLET    
S6               0.01       0.1        0.05       0.05       25         OUTLET    

[INFILTRATION]
;;Subcatchment   Param1     Param2     Param3     Param4     Param5    
;;-------------- ---------- ---------- ---------- ---------- ----------
S1               3          0.5        4          7          0         
S2               3          0.5        4          7          0         
S3               3          0.5        4          7          0         
S4               3          0.5        4          7          0         
S5               3          0.5        4          7          0         
S6               3          0.5        4          7          0         

[JUNCTIONS]
;;Name           Elevation  MaxDepth   InitDepth  SurDepth   Aponded   
;;-------------- ---------- ---------- ---------- ---------- ----------
G03160065        30.35      2          0          0          100       
G03160066        31.08      2          0          0          100       
G03160068        30.03      2          0          0          100       
G03160069        30.149     2          0          0          100       
G03160070        29.07      2          0          0          100       
G03160073        29.22      2          0          0          100       
J03010003        27.5       2          0          0          100       
J03160546        29.75      2          0          0          100       
J03160705        29.67      2          0          0          100       
J03165846        33.55      2          0          0          100       
J03166590        29.98      2          0          0          100       
J03166604        29.22      2          0          0          100       
J03166622        31.62      2          0          0          100       
J03166623        31.6       2          0          0          100       
J03176807        31.949     2          0          0          100       
J03176811        33.016     2.204      0          0          100       
J03176902        30.088     2.122      0          0          100       
J03180002        29.91      2          0          0          100       
J03180003        29.38      2          0          0          100       
J03180004        29.73      2          0          0          100       
J03180005        30.24      2          0          0          100       
J03180006        29.63      2          0          0          100       
J03180007        30.21      2          0          0          100       
J03180008        30.057     2.003      0          0          100       
J03180009        30.51      2          0          0          100       
J03180010        30.08      2          0          0          100       
J03180011        30.58      2          0          0          100       
J03180015        30.4       2          0          0          100       
J03180019        30.69      2          0          0          100       
J03180020        30.82      2          0          0          100       
J03180022        30.96      2          0          0          100       
J03180025        31.48      2          0          0          100       
J03180026        31.62      2          0          0          100       
J03180030        31.9       2          0          0          100       
J03180031        32.4       2          0          0          100       
J03180032        32.35      2          0          0          100       
J03180034        32.03      2          0          0          100       
J03180037        32.64      2          0          0          100       
J03180039        32.633     2.117      0          0          100       
J03180043        32.66      2          0          0          100       
J03180046        32.997     2.123      0          0          100       
J03180049        33.018     2.202      0          0          100       
J03180052        33.043     2.197      0          0          100       
J03180056        33.03      2.38       0          0          100       
J03180060        33.048     2.382      0          0          100       
J03180062        33.5       2          0          0          100       
J03180063        33.057     2.323      0          0          100       
J03180074        33.124     3.166      0          0          100       
J03180075        33.76      2          0          0          100       
J03180077        33.7       2          0          0          100       
J03180079        34.08      2          0          0          100       
J03180080        33.151     2.359      0          0          100       
J03180081        33.63      2          0          0          100       
J03180082        34.06      2          0          0          100       
J03180083        33.188     2.412      0          0          100       
J03180084        34.16      2          0          0          100       
J03180086        34.23      2          0          0          100       
J03180087        33.229     2.461      0          0          100       
J03180088        34.06      2          0          0          100       
J03180090        33.88      2          0          0          100       
J03180092        33.276     2.554      0          0          100       
J03180093        33.93      2          0          0          100       
J03180094        34.33      2          0          0          100       
J03180097        33.88      2          0          0          100       
J03180098        34.14      2          0          0          100       
J03180100        33.287     2.513      0          0          100       
J03180102        34.19      2          0          0          100       
J03180103        34.17      2          0          0          100       
J03180105        33.297     2.393      0          0          100       
J03180106        33.9       2          0          0          100       
J03180107        33.92      2          0          0          100       
J03180109        33.294     2.556      0          0          100       
J03180111        33.299     2.591      0          0          100       
J03180113        34.18      2          0          0          100       
J03180114        33.441     2.569      0          0          100       
J03180116        33.495     2.725      0          0          100       
J03180118        33.189     2.461      0          0          100       
J03180119        33.96      2          0          0          100       
J03180120        34.4       2          0          0          100       
J03180124        33.509     2.641      0          0          100       
J03189802        32.5       2          0          0          100       
J03189803        32.31      2          0          0          100       
J03189833        33.79      2          0          0          100       
J03189834        33.8       2          0          0          100       
J03189835        33.13      2          0          0          100       
J03189836        33.79      2          0          0          100       
J03189837        33.74      2          0          0          100       
J03189838        33.24      2          0          0          100       
J03189839        33.563     2          0          0          100       
J03189840        33.96      2          0          0          100       
J03189841        33.84      2          0          0          100       
J03189842        33.29      2          0          0          100       
J03189843        33.87      2          0          0          100       
J03189844        33.93      2          0          0          100       
J03189845        34.3       2          0          0          100       
J03189846        34.35      2          0          0          100       
J03189847        34.36      2          0          0          100       
J03189848        33.79      2          0          0          100       
J03190001        29.136     2          0          0          100       
J03190002        31.01      2          0          0          100       
J03190004        30.74      2          0          0          100       
J03190007        30.64      2          0          0          100       
J03190008        29.096     2          0          0          100       
J03190010        29.072     2          0          0          100       
J03190012        30.66      2          0          0          100       
J03190013        30.37      2          0          0          100       
J03190014        29.037     2          0          0          100       
J03190015        30.56      2          0          0          100       
J03190022        30.36      2          0          0          100       
J03190025        28.994     2          0          0          100       
J03190026        30.57      2          0          0          100       
J03190027        30.47      2          0          0          100       
J03190028        28.942     2          0          0          100       
J03190029        30.33      2          0          0          100       
J03190030        30.03      2          0          0          100       
J03190031        28.893     2          0          0          100       
J03190032        30.28      2          0          0          100       
J03190034        28.858     2          0          0          100       
J03190039        28.814     2          0          0          100       
J03190042        28.769     2          0          0          100       
J03190044        30.239     2          0          0          100       
J03190045        28.723     2          0          0          100       
J03190048        28.677     2          0          0          100       
J03190051        28.631     2          0          0          100       
J03190055        28.585     2          0          0          100       
J03190059        28.569     2          0          0          100       
J03190061        28.539     2          0          0          100       
J03190064        28.477     2          0          0          100       
J03190067        28.431     2          0          0          100       
J03190070        28.386     2          0          0          100       
J03190078        28.359     2          0          0          100       
J03190083        28.334     2          0          0          100       
J03190084        28.327     2          0          0          100       
J03190085        29.95      2          0          0          100       
J03190088        28.286     2          0          0          100       
J03190089        29.81      2          0          0          100       
J03190091        28.241     2          0          0          100       
J03190092        29.92      2          0          0          100       
J03190094        28.195     2          0          0          100       
J03190096        29.36      2          0          0          100       
J03190102        28.149     2          0          0          100       
J03190106        28.108     2          0          0          100       
J03190107        28.057     2          0          0          100       
J03190111        28.011     2          0          0          100       
J03190114        27.967     2          0          0          100       
J03190117        27.921     2          0          0          100       
J03190120        27.872     2          0          0          100       
J03190121        30.013     2          0          0          100       
J03190123        29.7       2          0          0          100       
J03190124        27.824     2          0          0          100       
J03190128        27.778     2          0          0          100       
J03190129        29.93      2          0          0          100       
J03190130        27.74      2          0          0          100       
J03190133        30.07      2          0          0          100       
J03190134        27.69      2          0          0          100       
J03190138        27.55      2          0          0          100       
J03190142        27.69      2          0          0          100       
J03190145        27.85      2          0          0          100       
J03190147        27.97      2          0          0          100       
J03190149        30.25      2          0          0          100       
J03190150        30.35      2          0          0          100       
J03190155        30.25      2          0          0          100       
J03190159        29.91      2          0          0          100       
J03190161        29.29      2          0          0          100       
J03190162        30.04      2          0          0          100       
J03190164        29.31      2          0          0          100       
J03190167        30.31      2          0          0          100       
J03190839        29.83      2          0          0          100       
J03190840        29.94      2          0          0          100       
J03191001        28.17      2          0          0          100       
J03191002        28.89      2          0          0          100       
J03191003        29.91      2          0          0          100       
J03191004        29.89      2          0          0          100       
J03191005        29.89      2          0          0          100       
J03191007        29         2          0          0          100       
J03191008        30.19      2          0          0          100       
J03191010        29.83      2          0          0          100       
J03191015        30.14      2          0          0          100       
J03191016        30.27      2          0          0          100       
J03191017        30.32      2          0          0          100       
J03191019        29.98      2          0          0          100       
J03191021        29.21      2          0          0          100       
J03191023        30.17      2          0          0          100       
J03191100        29.36      2          0          0          100       
J03191101        30.18      2          0          0          100       
J03191102        30.48      2          0          0          100       
J03191103        29.36      2          0          0          100       
J03191950        28.8       2          0          0          100       
J03191951        30.07      2          0          0          100       
J03191952        30.18      2          0          0          100       
J03191956        30.51      2          0          0          100       
J03191983        29.01      2          0          0          100       
J03192002        29.2       2          0          0          100       
J03192077        29.95      2          0          0          100       
J03193034        29.53      2          0          0          100       
J03193036        30.15      2          0          0          100       
J03193037        29.87      2          0          0          100       
J03193038        30         2          0          0          100       
J03193045        30.24      2          0          0          100       
J03193051        30.06      2          0          0          100       
J03193057        30.04      2          0          0          100       
J03193062        30.08      2          0          0          100       
J03193063        30.1       2          0          0          100       
J03193064        30.22      2          0          0          100       
J03193078        30.08      2          0          0          100       
J03193080        29.97      2          0          0          100       
J03193081        30.06      2          0          0          100       
J03193083        30.03      2          0          0          100       
J03193085        30.07      2          0          0          100       
J03193093        30.84      2          0          0          100       
J03193094        30.59      2          0          0          100       
J03193097        30.65      2          0          0          100       
J03193099        31.17      2          0          0          100       
J03193100        30.65      2          0          0          100       
J03193103        30.4       2          0          0          100       
J03193104        30.32      2          0          0          100       
J03193105        30.48      2          0          0          100       
J03193110        30.45      2          0          0          100       
J03193113        30.47      2          0          0          100       
J03193114        30.35      2          0          0          100       
J03193117        30.18      2          0          0          100       
J03193121        30.46      2          0          0          100       
J03193123        30.27      2          0          0          100       
J03193126        30.46      2          0          0          100       
J03193127        30.49      2          0          0          100       
J03193128        30.19      2          0          0          100       
J03193130        30.17      2          0          0          100       
J03193131        30.18      2          0          0          100       
J03193137        30.23      2          0          0          100       
J03193141        30.31      2          0          0          100       
J03193142        30.14      2          0          0          100       
J03193143        30.16      2          0          0          100       
J03193145        30.22      2          0          0          100       
J03193146        30.19      2          0          0          100       
J03193149        30.15      2          0          0          100       
J03193150        31.07      2          0          0          100       
J03193152        30.17      2          0          0          100       
J03193154        30.42      2          0          0          100       
J03193155        30.47      2          0          0          100       
J03193162        30.4       2          0          0          100       
J03193164        29.83      2          0          0          100       
J03193167        30.16      2          0          0          100       
J03193169        30.32      2          0          0          100       
J03193170        30         2          0          0          100       
J03193173        30.69      2          0          0          100       
J03195537        30.19      2          0          0          100       
J03195666        30.02      2          0          0          100       
J03195750        30.59      2          0          0          100       
J03195943        29.35      2          0          0          100       
J03195944        28.556     2          0          0          100       
J03195988        29.39      2          0          0          100       
J03195991        28.37      2          0          0          100       
J03196571        30.83      2          0          0          100       
J03196573        30.62      2          0          0          100       
J03196577        30.11      2          0          0          100       
J03196579        28.99      2          0          0          100       
J03198004        28.57      2          0          0          100       
J03198005        28.8       2          0          0          100       
J03233000        33.03      2          0          0          100       
J03235001        33.1       2          0          0          100       
J03235002        32.4       2          0          0          100       
J03235003        32.3       2          0          0          100       
J03235004        34.46      2          0          0          100       
J03235006        32.75      2          0          0          100       
J03235007        33.041     2          0          0          100       
J03235013        32.92      2          0          0          100       
J03235014        34.45      2          0          0          100       
J03235018        33.39      2          0          0          100       
J03235019        33.35      2          0          0          100       
J03235024        34.13      2          0          0          100       
J03235029        34.17      2          0          0          100       
J03235031        33.38      2          0          0          100       
J03235032        34.43      2          0          0          100       
J03235041        33.5       2          0          0          100       
J03235042        34.11      2          0          0          100       
J03235045        34.3       2          0          0          100       
J03235046        34.15      2          0          0          100       
J03235049        33.41      2          0          0          100       
J03235051        33.58      2          0          0          100       
J03235052        34.26      2          0          0          100       
J03235056        34.18      2          0          0          100       
J03235058        33.59      2          0          0          100       
J03235068        34.39      2          0          0          100       
J03235069        33.62      2          0          0          100       
J03235075        33.59      2          0          0          100       
J03235080        33.98      4          0          0          100       
J03235081        34.52      2          0          0          100       
J03235088        34.02      5          0          0          100       
J03260024        28.4       2          0          0          100       
J03260025        30.17      2          0          0          100       
J03260026        28.14      2          0          0          100       
J03260027        30.07      2          0          0          100       
J03260028        30.01      2          0          0          100       
J03260029        28.13      2          0          0          100       
J03260030        30.05      2          0          0          100       
J03260031        30.03      2          0          0          100       
J03260032        29.17      2          0          0          100       
J03260033        28.04      2          0          0          100       
J03260034        30         2          0          0          100       
J03260047        30.33      2          0          0          100       
J03260048        27.7       2          0          0          100       
J03260049        30.3       2          0          0          100       
J03260050        30.32      2          0          0          100       
J03260051        27.6       2          0          0          100       
J03260052        30.52      2          0          0          100       
J03260054        27.5       2          0          0          100       
J03260055        30.68      2          0          0          100       
J03260058        30.68      2          0          0          100       
J03260059        29.35      2          0          0          100       
J03260060        30.61      2          0          0          100       
J03260061        29.85      2          0          0          100       
J03260062        30.6       2          0          0          100       
J03260063        29.3       2          0          0          100       
J03260064        30.8       2          0          0          100       
J03260065        29.255     2          0          0          100       
J03260066        29.251     2          0          0          100       
J03260067        30.78      2          0          0          100       
J03260075        29.165     2          0          0          100       
J03260076        31.19      2          0          0          100       
J03260077        31.33      2          0          0          100       
J03260079        31.32      2          0          0          100       
J03260080        31.37      2          0          0          100       
J03260081        31.3       2          0          0          100       
J03260082        31.17      2          0          0          100       
J03260085        31.12      2          0          0          100       
J03260086        30.7       2          0          0          100       
J03260087        31.62      2          0          0          100       
J03260088        30.13      2          0          0          100       
J03260090        30.36      2          0          0          100       
J03260093        30.45      2          0          0          100       
J03260095        30.45      2          0          0          100       
J03260097        30.69      2          0          0          100       
J03260099        30.94      2          0          0          100       
J03260147        29.27      2          0          0          100       
J03260148        30.19      2          0          0          100       
J03260149        29.06      2          0          0          100       
J03260150        29.2       2          0          0          100       
J03260151        29.25      2          0          0          100       
J03260154        29.18      2          0          0          100       
J03260156        29.24      2          0          0          100       
J03260157        29.38      2          0          0          100       
J03260159        29.41      2          0          0          100       
J03260160        30.02      2          0          0          100       
J03260161        29.43      2          0          0          100       
J03260162        29.39      2          0          0          100       
J03260164        29.24      2          0          0          100       
J03260166        29.28      2          0          0          100       
J03260167        29.47      2          0          0          100       
J03260170        29.39      2          0          0          100       
J03260171        29.2       2          0          0          100       
J03260172        29.53      2          0          0          100       
J03260174        29.3       2          0          0          100       
J03260401        31.09      2          0          0          100       
J03260403        31.07      2          0          0          100       
J03260404        31.2       2          0          0          100       
J03260405        31.37      2          0          0          100       
J03260406        32.36      2          0          0          100       
J03260407        31.61      2          0          0          100       
J03260408        31.61      2          0          0          100       
J03260409        32.57      2          0          0          100       
J03260410        31.71      2          0          0          100       
J03260411        32.75      2          0          0          100       
J03260412        31.89      2          0          0          100       
J03260413        32.79      2          0          0          100       
J03260414        31.96      2          0          0          100       
J03260415        32.79      2          0          0          100       
J03260416        32.05      2          0          0          100       
J03260417        32.08      2          0          0          100       
J03260418        32.19      2          0          0          100       
J03260419        32.19      2          0          0          100       
J03260421        32.36      2          0          0          100       
J03260422        32.25      2          0          0          100       
J03260424        32.31      2          0          0          100       
J03260425        32.38      2          0          0          100       
J03260426        32.4       2          0          0          100       
J03260427        32.48      2          0          0          100       
J03260429        31.89      2          0          0          100       
J03260431        33.83      2          0          0          100       
J03260532        32.43      2          0          0          100       
J03260533        32.44      2          0          0          100       
J03260534        33.13      2          0          0          100       
J03260536        32.27      2          0          0          100       
J03260538        32.19      2          0          0          100       
J03260539        32.59      2          0          0          100       
J03260541        32.16      2          0          0          100       
J03260542        31.95      2          0          0          100       
J03260544        32.47      2          0          0          100       
J03260546        31.99      2          0          0          100       
J03260547        32.99      2          0          0          100       
J03260548        31.77      2          0          0          100       
J03260550        32.05      2          0          0          100       
J03260551        31.59      2          0          0          100       
J03260555        32.86      2          0          0          100       
J03260558        30.93      2          0          0          100       
J03260559        30.51      2          0          0          100       
J03260560        31.1       2          0          0          100       
J03260561        31.39      2          0          0          100       
J03260562        32.23      2          0          0          100       
J03260564        31.37      2          0          0          100       
J03260566        31.28      2          0          0          100       
J03260567        32.46      2          0          0          100       
J03260568        31.17      2          0          0          100       
J03260569        32.47      2          0          0          100       
J03260571        31.09      2          0          0          100       
J03260572        32.44      2          0          0          100       
J03260574        30.84      2          0          0          100       
J03260575        32.09      2          0          0          100       
J03260577        30.93      2          0          0          100       
J03260578        31.72      2          0          0          100       
J03261001        28.36      2          0          0          100       
J03261009        28.06      2          0          0          100       
J03261010        29.61      2          0          0          100       
J03261011        28.39      2          0          0          100       
J03261012        30         2          0          0          100       
J03261013        29.64      2          0          0          100       
J03261014        28.04      2          0          0          100       
J03261015        29.41      2          0          0          100       
J03262003        28.28      2          0          0          100       
J03262004        27.85      2          0          0          100       
J03262008        28.22      2          0          0          100       
J03262029        30.27      2          0          0          100       
J03262030        30.18      2          0          0          100       
J03262031        27.67      2          0          0          100       
J03262068        28.9       2          0          0          100       
J03262069        28.9       2          0          0          100       
J03262070        28.93      2          0          0          100       
J03262073        29.91      2          0          0          100       
J03262074        29.72      2          0          0          100       
J03262075        29.91      2          0          0          100       
J03262076        29.8       2          0          0          100       
J03262078        29.17      2          0          0          100       
J03262079        30.51      2          0          0          100       
J03262080        30.57      2          0          0          100       
J03262083        29.98      2          0          0          100       
J03262093        30.07      2          0          0          100       
J03262094        29.93      2          0          0          100       
J03262095        30.49      2          0          0          100       
J03262096        29.75      2          0          0          100       
J03262097        30.48      2          0          0          100       
J03262098        30.45      2          0          0          100       
J03262099        29.72      2          0          0          100       
J03262100        29.61      2          0          0          100       
J03262101        30.16      2          0          0          100       
J03262102        29.88      2          0          0          100       
J03262106        30.39      2          0          0          100       
J03262113        30.12      2          0          0          100       
J03262114        29.85      2          0          0          100       
J03262119        30.17      2          0          0          100       
J03262120        30.17      2          0          0          100       
J03262121        30.44      2          0          0          100       
J03262126        29.75      2          0          0          100       
J03262127        30.41      2          0          0          100       
J03262128        29.22      2          0          0          100       
J03262795        29.71      2          0          0          100       
J03263001        29.41      2          0          0          100       
J03263002        29.55      2          0          0          100       
J03263004        28.71      2          0          0          100       
J03263005        29.36      2          0          0          100       
J03263007        29.45      2          0          0          100       
J03263010        29.52      2          0          0          100       
J03263011        29.58      2          0          0          100       
J03263012        29.69      2          0          0          100       
J03263015        29.57      2          0          0          100       
J03263016        28.52      2          0          0          100       
J03263017        29.44      2          0          0          100       
J03263018        29.71      2          0          0          100       
J03263024        29.86      2          0          0          100       
J03263049        29.63      2          0          0          100       
J03263053        29.58      2          0          0          100       
J03263054        29.7       2          0          0          100       
J03263057        29.98      2          0          0          100       
J03263058        28.67      2          0          0          100       
J03263061        29.79      2          0          0          100       
J03263063        29.69      2          0          0          100       
J03263075        29.01      2          0          0          100       
J03263078        29.71      2          0          0          100       
J03263079        29.91      2          0          0          100       
J03263080        29.15      2          0          0          100       
J03263081        30.61      2          0          0          100       
J03263082        29.79      2          0          0          100       
J03264861        34         2          0          0          100       
J03264862        34.07      2          0          0          100       
J03264872        33.05      2          0          0          100       
J03264875        33.44      2          0          0          100       
J03264876        32.95      2          0          0          100       
J03264882        32.69      2          0          0          100       
J03264883        32.73      2          0          0          100       
J03264891        32.29      2          0          0          100       
J03264892        32.03      2          0          0          100       
J03264894        32.31      2          0          0          100       
J03264900        30.6       2          0          0          100       
J03264960        29.3       2          0          0          100       
J03264964        29.36      2          0          0          100       
J03265000        32.37      2          0          0          100       
J03265001        32.31      2          0          0          100       
J03266226        30.05      2          0          0          100       
J03266227        30.25      2          0          0          100       
J03266669        29.49      2          0          0          100       
J03266670        29.44      2          0          0          100       
J03266695        31.54      2          0          0          100       
J03266696        32.05      2          0          0          100       
J03266698        32.53      2          0          0          100       
J03266706        32.41      2          0          0          100       
J03266707        32.43      2          0          0          100       
J03351040        33.54      2          0          0          100       
J03351041        34.27      2          0          0          100       
J03351042        33.54      2          0          0          100       
J03351044        33.35      2          0          0          100       
J03351046        33.32      2          0          0          100       
J03351047        34.03      2          0          0          100       
J03351048        34.09      2          0          0          100       
J03351049        33.25      2          0          0          100       
J03351051        33.15      2          0          0          100       
J03351053        33.63      2          0          0          100       
J03351056        32.95      2          0          0          100       
J03351058        33.02      2          0          0          100       
J03351067        33.01      2          0          0          100       
J03351068        32.94      2          0          0          100       
J03351070        33.38      2          0          0          100       
J03351071        33.56      2          0          0          100       
J03351072        32.82      2          0          0          100       
J03351075        32.7       2          0          0          100       
J03351076        32.54      2          0          0          100       
J03351078        32.71      2          0          0          100       
J03351080        32.64      2          0          0          100       
J03351083        32.67      2          0          0          100       
J03351085        33.05      2          0          0          100       
J03351086        33.08      2          0          0          100       
J03351087        32.55      2          0          0          100       
J03351089        32.43      2          0          0          100       
J03351092        31.45      2          0          0          100       
J03351093        32.1       2          0          0          100       
J03351094        32.27      2          0          0          100       
J03351095        32.91      2          0          0          100       
J03351097        32.24      2          0          0          100       
J03352001        32.45      2          0          0          100       
J03352003        32.4       2          0          0          100       
J03352004        32.45      2          0          0          100       
J03352005        32.4       2          0          0          100       
J03352007        32.49      2          0          0          100       
J03352009        32.61      2          0          0          100       
J03352010        33.32      2          0          0          100       
J03352011        32.62      2          0          0          100       
J03352013        33.43      2          0          0          100       
J03352014        32.71      2          0          0          100       
J03352015        33.5       2          0          0          100       
J03352016        32.81      2          0          0          100       
J03352017        32.74      2          0          0          100       
J03352018        33.54      2          0          0          100       
J03352026        32.96      2          0          0          100       
J03352027        33.7       2          0          0          100       
J03352028        32.95      2          0          0          100       
J03352029        33.03      2          0          0          100       
J03352030        33.82      2          0          0          100       
J03352031        33.08      2          0          0          100       
J03352032        33.89      2          0          0          100       
J03352033        33.1       2          0          0          100       
J03352034        33.97      2          0          0          100       
J03352035        33.28      2          0          0          100       
J03352036        33.91      2          0          0          100       
J03352037        33.23      2          0          0          100       
J03352038        34.03      2          0          0          100       
J03352039        33.68      2          0          0          100       
J03352041        33.39      2          0          0          100       
J03352042        34.3       2          0          0          100       
J03352043        33.56      2          0          0          100       
J03352045        33.521     2.119      0          0          100       
J03352046        34.22      2          0          0          100       
J03352144        33.35      2          0          0          100       
J03355147        33.36      2          0          0          100       
J03380002        29.09      2          0          0          100       
J03380007        29.1       2          0          0          100       
J03380010        29.03      2          0          0          100       
J03380014        29.06      2          0          0          100       
J03380016        29.16      2          0          0          100       
J03380018        30.22      2          0          0          100       
J03380025        29.09      2          0          0          100       
J03380029        29.09      2          0          0          100       
J03380032        29.17      2          0          0          100       
J03380033        30.41      2          0          0          100       
J03380034        30.51      2          0          0          100       
J03380037        30.31      2          0          0          100       
J03380040        29.43      2          0          0          100       
J03380042        29.41      2          0          0          100       
J03380046        30.13      2          0          0          100       
J03380047        29.47      2          0          0          100       
J03380053        29.46      2          0          0          100       
J03380055        30.26      2          0          0          100       
J03380056        29.19      2          0          0          100       
J03380057        29.31      2          0          0          100       
J03380058        30.11      2          0          0          100       
J03380060        30.18      2          0          0          100       
J03380065        30.12      2          0          0          100       
J03380071        30.18      2          0          0          100       
J03380073        30.09      2          0          0          100       
J03380075        30.22      2          0          0          100       
J03380076        30.23      2          0          0          100       
J03380077        30.19      2          0          0          100       
J03380079        30.08      2          0          0          100       
J03380081        30.14      2          0          0          100       
J03380083        30.24      2          0          0          100       
J03380085        30.3       2          0          0          100       
J03380088        29.63      2          0          0          100       
J03380089        30.29      2          0          0          100       
J03380092        30.23      2          0          0          100       
J03380095        30.39      2          0          0          100       
J03380096        30.18      2          0          0          100       
J03380098        30.36      2          0          0          100       
J03380100        30.43      2          0          0          100       
J03380102        30.45      2          0          0          100       
J03380104        30.5       2          0          0          100       
J03380106        30.43      2          0          0          100       
J03380109        30.59      2          0          0          100       
J03380113        30.63      2          0          0          100       
J03380117        30.66      2          0          0          100       
J03380120        30.13      2          0          0          100       
J03380124        30.8       2          0          0          100       
J03380127        30.79      2          0          0          100       
J03380129        30.8       2          0          0          100       
J03380131        30.84      2          0          0          100       
J03380136        30.98      2          0          0          100       
J03380137        31         2          0          0          100       
J03380142        31         2          0          0          100       
J03380145        31.08      2          0          0          100       
J03380148        31.15      2          0          0          100       
J03380152        31.28      2          0          0          100       
J03380155        31.46      2          0          0          100       
J03380159        31.69      2          0          0          100       
J03380162        31.88      2          0          0          100       
J03380165        31.85      2          0          0          100       
J03380166        32.03      2          0          0          100       
J03380170        31.98      2          0          0          100       
J03380173        32.39      2          0          0          100       
J03380175        31.92      2          0          0          100       
J03380177        31.72      2          0          0          100       
J03380178        31.48      2          0          0          100       
J03380180        32.07      2          0          0          100       
J03380182        31.65      2          0          0          100       
J03380184        31.36      2          0          0          100       
J03380186        31.21      2          0          0          100       
J03380188        31.11      2          0          0          100       
J03380190        30.93      2          0          0          100       
J03380195        30.81      2          0          0          100       
J03380197        30.86      2          0          0          100       
J03380198        31.48      2          0          0          100       
J03380199        30.6       2          0          0          100       
J03380200        31.36      2          0          0          100       
J03380201        30.71      2          0          0          100       
J03380203        31.75      2          0          0          100       
J03380204        31.95      2          0          0          100       
J03380206        31.42      2          0          0          100       
J03380207        30.66      2          0          0          100       
J03380209        30.58      2          0          0          100       
J03380210        30.88      2          0          0          100       
J03380211        30.63      2          0          0          100       
J03380212        30.9       2          0          0          100       
J03380213        30.6       2          0          0          100       
J03380215        30.66      2          0          0          100       
J03380218        30.43      2          0          0          100       
J03380219        30.4       2          0          0          100       
J03380221        30.35      2          0          0          100       
J03380223        29.91      2          0          0          100       
J03380224        30.34      2          0          0          100       
J03380225        30.24      2          0          0          100       
J03380227        30.21      2          0          0          100       
J03380228        30.08      2          0          0          100       
J03380230        30.26      2          0          0          100       
J03380231        30.87      2          0          0          100       
J03380232        29.99      2          0          0          100       
J03380235        29.44      2          0          0          100       
J03380236        30.23      2          0          0          100       
J03380237        29.39      2          0          0          100       
J03380238        29.32      2          0          0          100       
J03380239        30.21      2          0          0          100       
J03380240        30.4       2          0          0          100       
J03380241        30.5       2          0          0          100       
J03380243        30.12      2          0          0          100       
J03380245        30.15      2          0          0          100       
J03380248        30.8       2          0          0          100       
J03380252        30.08      2          0          0          100       
J03380254        30.05      2          0          0          100       
J03380255        30.99      2          0          0          100       
J03380256        30.05      2          0          0          100       
J03380258        29.97      2          0          0          100       
J03380260        30         2          0          0          100       
J03380262        29.89      2          0          0          100       
J03380264        29.86      2          0          0          100       
J03380265        29.63      2          0          0          100       
J03380266        29.2       2          0          0          100       
J03380267        29.68      2          0          0          100       
J03380272        30.3       2          0          0          100       
J03380280        29.51      2          0          0          100       
J03380281        30.18      2          0          0          100       
J03380282        29.34      2          0          0          100       
J03380284        29.65      2          0          0          100       
J03380286        30.73      2          0          0          100       
J03380287        30.05      2          0          0          100       
J03380288        30.35      2          0          0          100       
J03380289        30.1       2          0          0          100       
J03380290        30.27      2          0          0          100       
J03380291        30.24      2          0          0          100       
J03380292        30.01      2          0          0          100       
J03380293        30.16      2          0          0          100       
J03380295        30.19      2          0          0          100       
J03380299        30.1       2          0          0          100       
J03380301        29.72      2          0          0          100       
J03380302        29.72      2          0          0          100       
J03380305        29.7       2          0          0          100       
J03380307        29.67      2          0          0          100       
J03380310        29.9       2          0          0          100       
J03380316        29.65      2          0          0          100       
J03380318        29.81      2          0          0          100       
J03380322        29.7       2          0          0          100       
J03380323        30.66      2          0          0          100       
J03380325        31.08      2          0          0          100       
J03380327        29.54      2          0          0          100       
J03380328        29.75      2          0          0          100       
J03380331        31.06      2          0          0          100       
J03380332        29.63      2          0          0          100       
J03380335        29.72      2          0          0          100       
J03380346        29.57      2          0          0          100       
J03380349        29.65      2          0          0          100       
J03380352        29.47      2          0          0          100       
J03380356        29.23      2          0          0          100       
J03388007        28.07      2          0          0          100       
J03411012        29.48      2          0          0          100       
J03411013        30.51      2          0          0          100       
J03411014        29.193     2.017      0          0          100       
J03411015        30.18      2          0          0          100       
J03411016        29.54      2          0          0          100       
J03411017        30.23      2          0          0          100       
J03411018        29.51      2          0          0          100       
J03411019        30.31      2          0          0          100       
J03411020        28.82      2          0          0          100       
J03411021        29.62      2          0          0          100       
J03411079        29.14      2          0          0          100       
J03411080        28.66      2          0          0          100       
J03411081        29.12      2          0          0          100       
J03411083        29.09      2          0          0          100       
J03464880        31.04      2          0          0          100       
J06103061        29.18      2          0          0          100       
J06103062        29.56      2          0          0          100       


[STORAGE]
;;Name           Elev.      MaxDepth   InitDepth  Shape      Curve Name/Params           Fevap
;;-------------- ---------- ---------- ---------- ---------- --------------------------- ----------
J03180001        29.3       102.000    0          TABULAR    MR_STORAGE                  0         
J03260038        28.05      102.000    0          TABULAR    MR_STORAGE                  0         
J03260041        27.83      102.000    0          TABULAR    MR_STORAGE                  0         
J03262001        27.57      102.000    0          TABULAR    MR_STORAGE                  0         
J03263039        28.63      102.000    0          TABULAR    MR_STORAGE                  0         
J03263052        28.58      102.000    0          TABULAR    MR_STORAGE                  0         

[OUTFALLS]
;;Name           Elevation  Type       Stage Data       Gated    Route To        
;;-------------- ---------- ---------- ---------------- -------- ----------------
J03260010        25.53      FREE                        NO                       

[CONDUITS]
;;Name           From Node        To Node          Length     Roughness  InOffset   OutOffset  InitFlow   MaxFlow   
;;-------------- ---------------- ---------------- ---------- ---------- ---------- ---------- ---------- ----------
34               J03380325        J03380331        6.271      0.01       0.07       0.04       0          0         
63               J03262074        J03262069        3.119      0.01       0          0.77       0          0         
95               J03191004        J03191005        2          0.01       0          0          0          0         
100              J03380231        J03380230        3.152      0.01       0          0.63       0          0         
129              J03380095        J03380092        20.977     0.01       0          0.02       0          0         
325              J03190134        J03190138        30.122     0.01       0          0          0          0         
783              J03189846        J03352043        2          0.01       0          0.77       0          0         
832              J03195944        J03190061        14.452     0.01       0          0          0          0         
841              J03260029        J03260033        41.356     0.01       0          0          0          0         
842              J03260030        J03260029        2.038      0.01       0          1.92       0          0         
1612             J03190130        J03190134        43.638     0.01       0          0          0          0         
1806             J03190133        J03190134        2.651      0.01       0          2.42       0          0         
1941             J03352046        J03352045        1.25       0.01       0          0.66       0          0         
2487             J03195750        J03193100        3.205      0.01       0          0          0          0         
2488             J03193097        J03195750        1.611      0.01       0          0          0          0         
2543             J06103062        J03411021        4.088      0.01       0          0.03       0          0         
2627             J03380047        J03380042        35.082     0.01       0          0          0          0         
2628             J03380280        J03380299        3.279      0.01       0.02       0.02       0          0         
2629             J03380295        J03380280        23.941     0.01       0          0.22       0          0         
2630             J03166590        J03380280        4.241      0.01       0          0          0          0         
2631             J03380301        J03380302        10.103     0.01       0.02       0          0          0         
2632             J03380299        J03380301        30.319     0.01       0          0          0          0         
2649             J03260148        J03260147        1.391      0.01       0          0.99       0          0         
2941             J03264861        J03351042        2          0.01       0          0.35       0          0         
3101             J03190084        J03190088        36.037     0.01       0          0          0          0         
3137             J03380316        J03380318        12.539     0.01       0          0          0          0         
3147             J03380076        J03380075        1.351      0.01       0          0          0          0         
3166             J03380016        J03380014        30.343     0.01       0          0          0          0         
3332             J03351053        J03351051        2          0.01       0          0.28       0          0         
3334             J03260532        J03260533        4.985      0.01       0          0.01       0          0         
3335             J03352043        J03352045        19.492     0.01       0.02       0.04       0          0         
3336             J03189845        J03352043        1.205      0.01       0          0.67       0          0         
3339             J03351085        J03351083        1.054      0.01       0          0.19       0          0         
3369             J03380265        J03380266        7.06       0.01       0          0          0          0         
3370             J03380056        J03380266        12.71      0.01       0          0          0          0         
3372             J03380292        J03380291        3.104      0.01       0          0          0          0         
3424             J03380211        J03380213        21.185     0.01       0          0.04       0          0         
3459             J03351086        J03351085        8.992      0.01       0          0          0          0         
3553             J03352018        J03352017        1.142      0.01       0          0.91       0          0         
3572             J03235068        J03235069        1.607      0.01       0          0.69       0          0         
3578             J03233000        J03235001        2          0.01       0          0.01       0          0         
3580             J03352032        J03352031        1.329      0.01       0          0.85       0          0         
3586             J03265000        J03260419        12.31      0.01       0          0          0          0         
3590             J03262093        J03262083        16.557     0.01       0          0          0          0         
3591             J03262099        J03262093        10.647     0.01       0.26       0.05       0          0         
3596             J03260082        J03260085        14.647     0.01       0          0.02       0          0         
3673             J03260533        J03351097        5.558      0.01       0          0          0          0         
3679             J03260093        J03260090        25.072     0.01       0          0          0          0         
3716             J03380190        J03380195        42.523     0.01       0          0          0          0         
3755             J03160546        J03380307        6.635      0.01       0          0.08       0          0         
3774             J03380188        J03380190        23.514     0.01       0          0          0          0         
3781             J03260425        J03260424        3.967      0.01       0          0          0          0         
3808             J03260038        J03260041        49.519     0.01       0          0.17       0          0         
3826             J03260075        J03190001        24.957     0.01       0          0          0          0         
3827             J03260066        J03260075        75.107     0.01       0          0          0          0         
3832             J03191983        J03198005        33.773     0.01       0          0          0          0         
3864             J03351087        J03351089        25.469     0.01       0          0.01       0          0         
3904             J03260028        J03260026        5.203      0.01       0          1.85       0          0         
4236             J03190015        J03190014        4.749      0.01       0          1.453      0          0         
4245             J03190089        J03190088        2.634      0.01       0          1.544      0          0         
4268             J03190002        J03190001        1.293      0.01       0          1.894      0          0         
4271             J03260049        J03260048        1.56       0.01       0          2.62       0          0         
4273             J03260548        J03260551        27.751     0.01       0          0          0          0         
4291             J03260546        J03260548        22.456     0.01       0.04       0          0          0         
4292             J03260541        J03260542        16.414     0.01       0          0.09       0          0         
4293             J03260539        J03260541        4.971      0.01       0          0.27       0          0         
4294             J03260538        J03260541        7.416      0.01       0          0          0          0         
4476             J03380152        J03380148        21.052     0.01       0          0.05       0          0         
4486             J03260076        J03260075        7.861      0.01       0          1.795      0          0         
4518             J03180118        J03180111        10.221     0.01       0.12       0          0          0         
4520             J03380307        J03380310        8.295      0.01       0          0          0          0         
4533             J03263061        J03263063        8.044      0.01       0          0          0          0         
4617             J03380281        J03380284        3.418      0.01       0          0          0          0         
4644             J03180020        J03180019        8.98       0.01       0.02       0          0          0         
4680             J03189802        J03352001        15.539     0.01       0          0          0          0         
4691             J03264900        J03260154        3.145      0.01       0          1.12       0          0         
4714             J03263017        J03263010        13.644     0.01       0          0          0          0         
4783             J03411021        J03411020        9.856      0.01       0          0.65       0          0         
4983             J03380215        J03196573        2.627      0.01       0          0          0          0         
5044             J03260024        J03260026        45.458     0.01       0          0          0          0         
5066             J03190007        J03190008        6.632      0.01       0          1.504      0          0         
5183             J03380175        J03380177        20.879     0.01       0          0.03       0          0         
5262             J03260547        J03260546        2          0.01       0          0.9        0          0         
5289             J03263057        J03263058        3.301      0.01       0          1.24       0          0         
5327             J03380219        J03195537        8.721      0.01       0.01       0          0          0         
5328             J03380212        J03380211        3.005      0.01       0          0.38       0          0         
5329             J03380195        J03380197        21.055     0.01       0          0          0          0         
5372             J03260417        J03260416        2          0.01       0          0          0          0         
5379             J03235004        J03235006        1.026      0.01       0          1.22       0          0         
5383             J03260424        J03260422        29.713     0.01       0.04       0.02       0          0         
5564             J03260427        J03260426        5.538      0.01       0.02       0          0          0         
5646             J03380318        J03380322        25.251     0.01       0          0.01       0          0         
5734             J03193146        J03193152        11.772     0.01       0.01       0          0          0         
5754             J03190839        J03380262        7.473      0.01       0          0          0          0         
5796             J03191010        J03191007        1.302      0.01       0          0.83       0          0         
5799             J03352038        J03352037        1.259      0.01       0          0.84       0          0         
5884             J03180093        J03180092        2.125      0.01       0          0.06       0          0         
5963             J03388007        J03190147        39.489     0.01       0          0          0          0         
6198             G03160066        G03160065        2.4        0.01       0          0.33       0          0         
6200             J03260404        J03260403        25.118     0.01       0          0.01       0          0         
6935             J03191956        J03190167        4.294      0.01       0          0.06       0          0         
7035             G03160065        G03160073        12.774     0.01       0          0.77       0          0         
7084             J03260560        J03260561        15.536     0.01       0.41       0.01       0          0         
7105             J03351083        J03351087        27.219     0.01       0          0.02       0          0         
7282             J03191023        J03191021        5.135      0.01       0          0.99       0          0         
7373             J03351072        J03351075        26.141     0.01       0          0.11       0          0         
7495             J03352027        J03352026        1.204      0.01       0          0.78       0          0         
7498             J03351047        J03351046        1.343      0.01       0          0.46       0          0         
8063             J03193131        J03193137        11.569     0.01       0          0          0          0         
8274             J03190167        J03190150        14.999     0.01       0          0.03       0          0         
8293             J03262083        J03262075        12.788     0.01       0.04       0          0          0         
8294             J03262080        J03262075        5.857      0.01       0          0.6        0          0         
8295             J03262079        J03262078        2.489      0.01       0          1.23       0          0         
8305             J03191001        J03388007        10.772     0.01       0          0          0          0         
8423             J03351094        J03264894        1.228      0.01       0.02       0          0          0         
8614             J03235069        J03235051        17.13      0.01       0          0          0          0         
8670             J03180109        J03180105        7.311      0.01       0.01       0          0          0         
8894             J03380098        J03380096        21.246     0.01       0          0.03       0          0         
9134             J03260405        J03260404        25.127     0.01       0          0          0          0         
9700             J03193117        J03193113        13.354     0.01       0          0          0          0         
9703             J03352004        J03189803        37.661     0.01       0          0          0          0         
9704             J03352005        J03352004        10.847     0.01       0          0.01       0          0         
9736             J03351071        J03351070        5.754      0.01       0.03       0          0          0         
10024            J03351040        J03351042        3.843      0.01       0          0          0          0         
10072            J03235007        J03235013        2.412      0.01       0          0          0          0         
10076            J03235019        J03235013        10.16      0.01       0.09       0.45       0          0         
10117            J03380322        J03380327        4.686      0.01       0          0          0          0         
10119            J03264891        J03351092        1.204      0.01       0          0.63       0          0         
10124            J03196579        J03380016        1.368      0.01       0          0          0          0         
10130            J03264892        J03351092        2          0.01       0          0.48       0          0         
10138            J03180003        J03260149        15.275     0.01       0          0.07       0          0         
10144            J03180004        J03180003        2.058      0.01       0          0.29       0          0         
10146            J03380025        J03196579        28.73      0.01       0          0          0          0         
10148            J03180005        J03180006        2.717      0.01       0          0.21       0          0         
10158            J03180007        J03180006        1.945      0.01       0          0.25       0          0         
10159            J03351089        J03351092        25.433     0.01       0          0.04       0          0         
10161            J03235024        J03235019        1.86       0.01       0          0.79       0          0         
10162            J03351093        J03351092        2          0.01       0          0.63       0          0         
10164            J03380014        J03380010        30.129     0.01       0          0          0          0         
10211            J03166604        J03380025        26.353     0.01       0          0          0          0         
10242            J03380032        J03380029        30.236     0.01       0          0          0          0         
10264            J03380106        J03380104        22.928     0.01       0          0          0          0         
10284            J03196577        J03380352        4.586      0.01       0          0.65       0          0         
10363            J03260081        J03260082        11.162     0.01       0          0.07       0          0         
10405            J03235029        J03235019        2.486      0.01       0          0.82       0          0         
10464            J03380310        J03380316        10.137     0.01       0          0          0          0         
10601            J03260063        J03260065        39.396     0.01       0          0          0          0         
10602            J03260067        J03260066        2          0.01       0          1.489      0          0         
10605            G03160068        G03160070        7.507      0.01       0          0.58       0          0         
10607            G03160073        G03160070        18.934     0.01       0          0          0          0         
10608            J03263063        J03263053        13.724     0.01       0          0          0          0         
10671            J03351097        J03266707        12.488     0.01       0.22       0.05       0          0         
10690            J03260559        J03260560        3.179      0.01       0.56       0          0          0         
10691            J03260551        J03260560        9.522      0.01       0          0.41       0          0         
10744            J03189838        J03352033        18.813     0.01       0          0.05       0          0         
10746            J03352035        J03189838        6.318      0.01       0          0          0          0         
10833            J03260542        J03260546        25.173     0.01       0          0          0          0         
10845            J03260431        J03176807        21.134     0.01       0          1.561      0          0         
10879            J03351095        J03351094        2          0.01       0          0.65       0          0         
11139            J03260086        J03260088        4.181      0.01       0          0          0          0         
11172            J03260085        J03260086        5.251      0.01       0          0.2        0          0         
11209            J03260077        J03260076        4.17       0.01       0          0.02       0          0         
12024            J03262008        J03262004        11.855     0.01       0          0          0          0         
12611            J03176807        J03260429        1.181      0.01       0          0          0          0         
12612            J03180094        J03180093        2          0.01       0          0.23       0          0         
12613            J03180098        J03180097        2          0.01       0          0.18       0          0         
12615            J03180107        J03180106        2          0.01       0          0          0          0         
12620            J03180075        J03180074        2.944      0.01       0          0.09       0          0         
12621            J03180082        J03180083        2.292      0.01       0          0.17       0          0         
12622            J03180084        J03180083        2.245      0.01       0          0.52       0          0         
12633            J03193064        J03193063        16.129     0.01       0.01       0          0          0         
12636            J03191002        J03191950        4.693      0.01       0          0          0          0         
12637            J03193143        J03193145        23.966     0.01       0          0.02       0          0         
12638            J03193150        J03193149        2          0.01       0          0.92       0          0         
12643            J03193167        J03193164        16.561     0.01       0          0          0          0         
12644            J03193169        J03193167        20.867     0.01       0.04       0.1        0          0         
12649            J03260421        J03260418        31.273     0.01       0          0          0          0         
12650            J03190161        J03190164        5.832      0.01       0          0          0          0         
12652            J03380237        J03195988        1.311      0.01       0          0          0          0         
12653            J03260416        J03260414        3.872      0.01       0          0          0          0         
12654            J03260566        J03260568        25.051     0.01       0          0          0          0         
12656            J03190014        J03190025        37.211     0.01       0          0          0          0         
12660            J03190025        J03190028        44.635     0.01       0          0          0          0         
12661            J03190027        J03190028        1.947      0.01       0          1.328      0          0         
12662            J03190029        J03190028        4.623      0.01       0          1.328      0          0         
12663            J03190030        J03190031        2          0.01       0          1.087      0          0         
12664            J03380230        J03380232        19.122     0.01       0.04       0          0          0         
12665            J03380228        J03380230        21.068     0.01       0          0          0          0         
12668            J03193094        J03193097        15.519     0.01       0.03       0.02       0          0         
12673            J03380248        J03380245        21.02      0.01       0.01       0          0          0         
12676            J03380272        J03380265        42.338     0.01       0          0          0          0         
12678            J03190117        J03190120        41.983     0.01       0          0          0          0         
12679            J03190114        J03190117        40.028     0.01       0          0          0          0         
12681            J03193137        J03193141        9.533      0.01       0          0.03       0          0         
12682            J03193142        J03193143        2.76       0.01       0          0          0          0         
12683            J03193141        J03193142        2.718      0.01       0          0.02       0          0         
12685            J03193038        J03193037        4.438      0.01       0.01       0          0          0         
12686            J03193036        J03193038        8.575      0.01       0.05       0          0          0         
12687            J03193123        J03193083        27.198     0.01       0.02       0.06       0          0         
12688            J03195666        J03193085        3.501      0.01       0          0          0          0         
12690            J03190008        J03190010        20.983     0.01       0          0          0          0         
12691            J03193128        J03193126        6.758      0.01       0.3        0          0          0         
12692            J03193126        J03193127        1.388      0.01       0.05       0          0          0         
12694            J03190147        J03190145        54.45      0.01       0          0          0          0         
12697            J03380213        J03380215        7.004      0.01       0          0          0          0         
12698            J03193080        J03193078        10.817     0.01       0          0          0          0         
12699            J03191103        J03191021        2          0.01       0          0.16       0          0         
12700            J03192002        J03191103        15.251     0.01       0          0          0          0         
12760            J03235080        J03235075        3.208      0.01       0.42       0.68       0          0         
12761            J03235088        J03235080        4.775      0.01       0          0          0          0         
12865            J03260033        J03260038        50.954     0.01       0.04       0.04       0          0         
12866            J06103061        J06103062        3.059      0.01       0.5        0          0          0         
12870            J03263007        J03263002        7.795      0.01       0          0          0          0         
12871            J03263005        J03263004        1.392      0.01       0          0.69       0          0         
12872            J03263011        J03263004        17.2       0.01       0          0.01       0          0         
12873            J03411014        J03411083        2.409      0.01       0.02       0          0          0         
12874            J03266670        J03411014        3.087      0.01       0          0.23       0          0         
12875            J03411016        J03411014        39.411     0.01       0          0.2        0          0         
12876            J03266669        J03411016        1.103      0.01       0          0          0          0         
12877            J03411017        J03266669        2          0.01       0          0.72       0          0         
12878            J03260061        J03260059        13.523     0.01       0          0.13       0          0         
12880            J03262029        J03262031        4.785      0.01       0          2.53       0          0         
12884            J03260065        J03260066        3.409      0.01       0          0          0          0         
12888            J03266227        J03266226        1.106      0.01       0.09       0          0          0         
12889            J03263054        J03263049        19.792     0.01       0          0          0          0         
12890            J03263053        J03263054        7.329      0.01       0.05       0          0          0         
12892            J03262100        J03262099        1.924      0.01       0          0          0          0         
12893            J03262101        J03262100        5.038      0.01       0          0.23       0          0         
12894            J03262113        J03262101        7.346      0.01       0          0          0          0         
12895            J03262102        J03262101        3.967      0.01       0          0.27       0          0         
12897            J03262031        J03260048        37.409     0.01       0.01       0          0          0         
12903            J03262075        J03262094        15.581     0.01       0          0.03       0          0         
12904            J03262095        J03262094        1.479      0.01       0          0.64       0          0         
12907            J03180111        J03180109        4.905      0.01       0          0          0          0         
12940            J03352033        J03189835        9.073      0.01       0          0          0          0         
12942            J03189833        J03352033        2          0.01       0          0.59       0          0         
12978            J03380096        J03380095        21.275     0.01       0          0          0          0         
12979            J03166623        J03380197        1.851      0.01       0          0.82       0          0         
12980            J03380100        J03380098        21.15      0.01       0.04       0.07       0          0         
12982            J03380088        J03380085        6.231      0.01       0.7        0.01       0          0         
12983            J03380089        J03380088        14.879     0.01       0          0.79       0          0         
12986            J03380289        J03380290        12.511     0.01       0          0          0          0         
12987            J03380293        J03380295        19.668     0.01       0.01       0          0          0         
12988            J03380291        J03380293        10.803     0.01       0.06       0          0          0         
12989            J03380332        J03380335        25.319     0.01       0          0          0          0         
12990            J03380328        J03160705        7.126      0.01       0.01       0          0          0         
12991            J03380327        J03380328        15.283     0.01       0          0          0          0         
12993            J03260170        J03260166        21.641     0.01       0          0          0          0         
12994            J03260171        J03260170        35.102     0.01       0          0          0          0         
12995            J03260150        J03411014        6.999      0.01       0          0          0          0         
12996            J03260149        J03260150        3.88       0.01       0.31       0          0          0         
12998            J03260151        J03260149        32.274     0.01       0.01       0          0          0         
13000            J03260162        J03260161        22.771     0.01       0          0          0          0         
13298            J03190102        J03190106        35.52      0.01       0          0          0          0         
13357            J03180006        J03180003        29.282     0.01       0          0          0          0         
13491            J03180062        J03180063        2.146      0.01       0          0.01       0          0         
13492            J03180074        J03180063        27.089     0.01       0.06       0.1        0          0         
13493            J03180010        J03176902        2.065      0.01       0.01       0          0          0         
13494            J03180043        J03180039        26.886     0.01       0          0          0          0         
13496            J03191101        J03190149        16.156     0.01       0.13       0          0          0         
13512            J03195943        J03190161        17.051     0.01       0          0          0          0         
13513            J03190159        J03190161        1.715      0.01       0          0.65       0          0         
13524            J03260562        J03260561        6.829      0.01       0          0.46       0          0         
13525            J03260561        J03260564        25.188     0.01       0          0          0          0         
13560            J03260079        J03260077        12.205     0.01       0.02       0          0          0         
13562            J03352042        J03352043        1.391      0.01       0          0.76       0          0         
13569            J03263078        J03263075        3.544      0.01       0          0.71       0          0         
13643            J03264876        J03351068        1.102      0.01       0          0          0          0         
13801            J03260568        J03260571        25.17      0.01       0.02       0          0          0         
13802            J03380236        J03380237        2          0.01       0          0.73       0          0         
13820            J03352144        J03352037        13.804     0.01       0          0.07       0          0         
13821            J03352039        J03352144        1.127      0.01       0          0.28       0          0         
13936            J03380325        J03380322        2.825      0.01       0          1.64       0          0         
13937            J03190150        J03191019        21.272     0.01       0          0.34       0          0         
14073            J03193173        J03193169        15.419     0.01       0          0.03       0          0         
14080            J03380142        J03380137        10.91      0.01       0.02       0          0          0         
14101            J03190001        J03190008        34.954     0.01       0          0          0          0         
14137            J03190059        J03195944        10.981     0.01       0          0          0          0         
14141            J03190055        J03190059        14.461     0.01       0          0          0          0         
14208            J03193154        J03193152        13.308     0.01       0.05       0.15       0          0         
14270            J03380159        J03380155        21.098     0.01       0          0          0          0         
14272            J03380162        J03380159        21.203     0.01       0.01       0.02       0          0         
14472            J03380073        J03380071        21.192     0.01       0          0          0          0         
14475            J03352034        J03352033        1.166      0.01       0          0.85       0          0         
14478            J03260574        J03260577        25.016     0.01       0.01       0          0          0         
14574            J03380166        J03380165        19.927     0.01       0.01       0          0          0         
14707            J03260079        J03260080        13.196     0.01       0          0.04       0          0         
14739            J03380002        J03380356        20.083     0.01       0          0          0          0         
14745            J03191021        J03191007        31.512     0.01       0          0          0          0         
14749            J03380218        J03380219        21.28      0.01       0.04       0          0          0         
14765            J03380186        J03380188        21.252     0.01       0          0.04       0          0         
14950            J03235045        J03235046        1.331      0.01       0          0.23       0          0         
15152            J03351076        J03264882        27.054     0.01       0          0          0          0         
15171            J03235013        J03235003        12.823     0.01       0.17       0.7        0          0         
15187            J03190840        J03190839        6.416      0.01       0          0          0          0         
15242            J03380060        J03380058        27.273     0.01       0          0          0          0         
15277            J03235031        J03235019        30.717     0.01       0.01       0          0          0         
15281            J03260564        J03260566        25.129     0.01       0.08       0          0          0         
15332            J03352043        J03352041        25.122     0.01       0          0          0          0         
15333            J03380046        J03380047        1.846      0.01       0          0.65       0          0         
15362            J03260166        J03260164        21.239     0.01       0.02       0.04       0          0         
15806            J03190128        J03190130        33.29      0.01       0          0          0          0         
16419            J03190088        J03190091        39.544     0.01       0          0          0          0         
16476            J03198005        J03195991        44.253     0.01       0.11       0.08       0          0         
16575            J03262076        J03262078        3.21       0.01       0          0.58       0          0         
16654            J03190064        J03190067        39.91      0.01       0          0          0          0         
16672            J03260026        J03260029        48.876     0.01       0          0          0          0         
16865            J03262068        J03262008        19.513     0.01       0          0          0          0         
16887            J03262069        J03262068        2.641      0.01       0          0          0          0         
16908            J03193162        J03193164        7.328      0.01       0          0.58       0          0         
16909            J03411013        J03411012        1.057      0.01       0          1          0          0         
17523            J03191019        J03191021        2.189      0.01       0          0.75       0          0         
17571            J03190091        J03190094        39.74      0.01       0          0          0          0         
17580            J03190155        J03380238        2.959      0.01       0          0.44       0          0         
17703            J03191102        J03191101        8.902      0.01       0          0          0          0         
17714            J03235049        J03235031        10.241     0.01       0          0          0          0         
17715            J03235051        J03235041        2          0.01       0          0.01       0          0         
17766            J03235056        J03235058        3.411      0.01       0          0.56       0          0         
17896            J03180015        J03180010        12.995     0.01       0          0          0          0         
17908            J03235075        J03235058        10.966     0.01       0          0.06       0          0         
17926            J03262003        J03261001        22.773     0.01       0          0          0          0         
17953            J03193130        J03193128        1.916      0.01       0          0          0          0         
18020            J03190121        J03190120        1.06       0.01       0          2.088      0          0         
18084            J03191007        J03191002        18.024     0.01       0          0.2        0          0         
18113            J03351042        J03351044        27.374     0.01       0.03       0          0          0         
18330            J03190162        J03191956        3.111      0.01       0.37       0          0          0         
18338            J03190124        J03190128        39.959     0.01       0          0          0          0         
18383            J03380254        J03380256        18.814     0.01       0          0          0          0         
18387            J03190162        J03190164        2.604      0.01       0          0.62       0          0         
18389            J03263049        J03262795        22.328     0.01       0          0          0          0         
18423            J03262030        J03262031        1.871      0.01       0          2.43       0          0         
18530            J03190120        J03190124        41.672     0.01       0          0          0          0         
19043            J03193155        J03193154        5.514      0.01       0          0          0          0         
19132            J03235018        J03235006        14.956     0.01       0          0.03       0          0         
19193            J03263075        J03263058        31.013     0.01       0          0          0          0         
19227            J03235041        J03235018        25.415     0.01       0          0.01       0          0         
19440            J03351041        J03351042        2          0.01       0          0.77       0          0         
19717            J03193103        J03193105        1.09       0.01       0          0          0          0         
19838            J03235002        J03233000        7.424      0.01       0.66       0.05       0          0         
19850            J03235003        J03235002        1.394      0.01       0          0          0          0         
19910            J03235014        J03235018        2          0.01       0          0.99       0          0         
20466            J03235032        J03235031        22.341     0.01       0          0.86       0          0         
20474            J03193093        J03193094        17.845     0.01       0          0          0          0         
20518            J03352014        J03352011        25.359     0.01       0.03       0.01       0          0         
20519            J03352013        J03352014        1.31       0.01       0          0.74       0          0         
20520            J03352016        J03352014        16.355     0.01       0.03       0          0          0         
20521            J03352015        J03352016        1.068      0.01       0          0.74       0          0         
20529            J03352030        J03352029        1.215      0.01       0          0.73       0          0         
20530            J03352028        J03352026        18.285     0.01       0          0          0          0         
20531            J03352029        J03352028        6.909      0.01       0.01       0          0          0         
20532            J03352001        J03266707        21.939     0.01       0          0          0          0         
20534            J03180105        J03180100        9.858      0.01       0          0          0          0         
20535            J03180097        J03180100        2.112      0.01       0          0.16       0          0         
20536            J03180106        J03180105        2.153      0.01       0          0.23       0          0         
20538            J03180087        J03180083        20.994     0.01       0          0.02       0          0         
20539            J03180092        J03180087        26.969     0.01       0.01       0.03       0          0         
20540            J03180086        J03180087        2.442      0.01       0          0.14       0          0         
20541            J03180088        J03180087        2.234      0.01       0          0.09       0          0         
20542            J03180090        J03180092        2.361      0.01       0          0.19       0          0         
20543            J03180114        J03180118        2.488      0.01       0          0.25       0          0         
20544            J03180113        J03180114        5.048      0.01       0          0.13       0          0         
20545            J03180116        J03180114        4.331      0.01       0          0.05       0          0         
20546            J03180119        J03180118        2.084      0.01       0          0          0          0         
20547            J03180120        J03180119        2          0.01       0          0.3        0          0         
20548            J03180124        J03180116        13.531     0.01       0          0          0          0         
20549            J03352031        J03352029        25.052     0.01       0.04       0          0          0         
20550            J03189835        J03352031        16.079     0.01       0          0          0          0         
20560            J03189803        J03352003        8.11       0.01       0          0.05       0          0         
20569            J03352009        J03352007        29.308     0.01       0          0          0          0         
20570            J03352011        J03352009        23.212     0.01       0          0.02       0          0         
20571            J03352003        J03189802        7.058      0.01       0          0          0          0         
20573            J03180063        J03180060        9.004      0.01       0          0          0          0         
20577            J03180001        J03260149        1.555      0.01       0          0.17       0          0         
20578            J03180008        J03180006        8.251      0.01       0          0.03       0          0         
20579            J03176902        J03180008        10.54      0.01       0          0.02       0          0         
20582            J03180037        J03180034        6.92       0.01       0          0.27       0          0         
20584            J03180039        J03180034        25.009     0.01       0.03       0          0          0         
20592            J03260558        J03260559        2.696      0.01       0          0          0          0         
20594            J03260147        J03260149        17.224     0.01       0          0.01       0          0         
20605            J03180056        J03180052        26.93      0.01       0.06       0.02       0          0         
20606            J03180060        J03180056        17.945     0.01       0          0          0          0         
20609            J03180011        J03180015        2.081      0.01       0          0.04       0          0         
20611            J03180019        J03180015        30.853     0.01       0.01       0.03       0          0         
20613            J03180022        J03180020        12.39      0.01       0.01       0          0          0         
20615            J03180025        J03180022        17.373     0.01       0          0          0          0         
20616            J03180026        J03180025        9.761      0.01       0.08       0          0          0         
20618            J03180030        J03180026        31.217     0.01       0.03       0          0          0         
20619            J03180034        J03180030        31.025     0.01       0.05       0          0          0         
20622            J03352017        J03352016        25.018     0.01       0          0          0          0         
20623            J03180046        J03180043        27.198     0.01       0.04       0.01       0          0         
20624            J03176811        J03180046        19.284     0.01       0          0          0          0         
20627            J03180049        J03176811        2.151      0.01       0          0          0          0         
20628            J03180052        J03180049        25.042     0.01       0          0          0          0         
20636            J03191017        J03191019        2          0.01       0          0.34       0          0         
20637            J03380227        J03380228        12.461     0.01       0          0.02       0          0         
20638            J03380225        J03380227        8.773      0.01       0          0          0          0         
20639            J03380223        J03380225        21.251     0.01       0.23       0.04       0          0         
20640            J03380224        J03380223        2.884      0.01       0          0          0          0         
20641            J03380204        J03380203        9.923      0.01       0          0          0          0         
20643            J03380203        J03380201        2.768      0.01       0          0.89       0          0         
20644            J03260419        J03266706        2.252      0.01       0.17       0          0          0         
20645            J03260418        J03260417        22.329     0.01       0.02       0          0          0         
20646            J03266706        J03260418        3.074      0.01       0          0.16       0          0         
20647            J03190039        J03190042        39.898     0.01       0          0          0          0         
20648            J03190034        J03190039        38.335     0.01       0          0          0          0         
20655            J03191005        J03192077        1.294      0.01       0          0          0          0         
20683            J03180102        J03180103        4.603      0.01       0          0.08       0          0         
20777            J03260097        J03260095        25.095     0.01       0          0          0          0         
20821            J03263079        J03263061        13.308     0.01       0          0.02       0          0         
20913            J03262795        J03263015        26.263     0.01       0          0          0          0         
20942            J03260429        J03260427        23.315     0.01       0          0          0          0         
20944            J03190149        J03191023        3.168      0.01       0          0          0          0         
20945            J03010003        J03260010        48.94      0.01       0          0          0          0         
20946            J03380007        J03380002        27.171     0.01       0          0          0          0         
20953            J03263002        J03263001        13.225     0.01       0          0          0          0         
20954            J03262106        J03262102        6.054      0.01       0          0          0          0         
20956            J03380079        J03380077        21.153     0.01       0          0.04       0          0         
20962            J03263018        J03263017        7.211      0.01       0          0.07       0          0         
20992            J03351049        J03351051        25.285     0.01       0          0          0          0         
20993            J03352036        J03352035        1.461      0.01       0          0.66       0          0         
21040            J03263024        J03263018        5.006      0.01       0          0          0          0         
21712            J03190107        J03190111        39.737     0.01       0          0          0          0         
21714            J03191100        J03195943        2          0.01       0          0          0          0         
21715            J03190013        J03190014        2.073      0.01       0          1.253      0          0         
21742            J03190094        J03190102        39.827     0.01       0          0          0          0         
21744            J03190106        J03190107        44.472     0.01       0          0          0          0         
21746            J03193045        J03193036        4.396      0.01       0          0          0          0         
21747            J03193051        J03193045        4.594      0.01       0.18       0.01       0          0         
21748            J03193057        J03193051        14.983     0.01       0.1        0          0          0         
21749            J03193062        J03193057        1.687      0.01       0          0          0          0         
21750            J03193063        J03193062        1.352      0.01       0          0          0          0         
21754            J03193078        J03193064        25.041     0.01       0.08       0          0          0         
21757            J03190111        J03190114        39.03      0.01       0          0          0          0         
21759            J03193085        J03193081        33.156     0.01       0.11       0          0          0         
21760            J03193130        J03193131        12.866     0.01       0.01       0          0          0         
21762            J03190070        J03190078        23.582     0.01       0          0          0          0         
21763            J03191015        J03191952        2          0.01       0          0          0          0         
21764            J03191003        J03191002        1.093      0.01       0          1.03       0          0         
21765            J03191004        J03191002        2.465      0.01       0.12       1.01       0          0         
21766            J03191950        J03190078        45.407     0.01       0          0.121      0          0         
21767            J03192077        J03191950        3.53       0.01       0          0          0          0         
21769            J03190083        J03190084        5.873      0.01       0          0          0          0         
21770            J03193034        J03190083        30.123     0.01       0          0.896      0          0         
21771            J03190078        J03190083        21.374     0.01       0          0          0          0         
21772            J03190085        J03190084        3.038      0.01       0          1.563      0          0         
21773            J03191951        J03191004        9.127      0.01       0          0          0          0         
21774            J03191008        J03191951        7.562      0.01       0.01       0          0          0         
21778            J03190123        J03190124        5.94       0.01       0          1.746      0          0         
21780            J03193145        J03193146        1.201      0.01       0          0          0          0         
21781            J03193170        J03193169        17.192     0.01       0.16       0          0          0         
21784            J03193149        J03193170        16.496     0.01       0          0          0          0         
21786            J03190129        J03190130        1.303      0.01       0          2.21       0          0         
21787            J03260422        J03260421        25.159     0.01       0          0.02       0          0         
21788            J03190067        J03190070        39.661     0.01       0          0          0          0         
21789            J03195988        J03380238        40.102     0.01       0          0.01       0          0         
21792            J03190042        J03190045        40.015     0.01       0          0          0          0         
21793            J03190044        J03190045        3.374      0.01       0          1.347      0          0         
21796            J03190045        J03190048        39.805     0.01       0          0          0          0         
21799            J03380240        J03380239        2.766      0.01       0          0.19       0          0         
21800            J03380241        J03380239        2.833      0.01       0          0.02       0          0         
21803            J03190048        J03190051        39.793     0.01       0          0          0          0         
21805            J03190051        J03190055        39.887     0.01       0          0          0          0         
21806            J03190061        J03190064        53.975     0.01       0          0          0          0         
21812            J03190004        J03190001        4.567      0.01       0          1.454      0          0         
21814            J03190012        J03190010        4.566      0.01       0          1.538      0          0         
21815            J03190010        J03190014        30.735     0.01       0          0          0          0         
21817            J03190022        J03190025        2.628      0.01       0          1.486      0          0         
21820            J03198004        J03190088        12.7       0.01       0.02       0.244      0          0         
21821            J03195991        J03198004        4.723      0.01       0          0          0          0         
21822            J03190031        J03190034        30.418     0.01       0          0          0          0         
21823            J03190028        J03190031        42.629     0.01       0          0          0          0         
21824            J03190032        J03190031        5.94       0.01       0          1.237      0          0         
21826            J03380235        J03380237        42.875     0.01       0          0.04       0          0         
21827            J03380239        J03380235        10.428     0.01       0.02       0.71       0          0         
21828            J03380232        J03380235        10.524     0.01       0.07       0.72       0          0         
21829            J03193100        J03193104        26.531     0.01       0          0          0          0         
21830            J03193104        J03193103        3.414      0.01       0.19       0          0          0         
21832            J03380243        J03380239        21.044     0.01       0          0          0          0         
21833            J03380245        J03380243        21.203     0.01       0.01       0.04       0          0         
21835            J03380256        J03380258        40.309     0.01       0.02       0.02       0          0         
21836            J03380258        J03380260        21.204     0.01       0          0          0          0         
21838            J03380260        J03190840        7.306      0.01       0.05       0          0          0         
21839            J03380262        J03380264        21.12      0.01       0.03       0.02       0          0         
21840            J03380267        J03380265        13.602     0.01       0          0.01       0          0         
21841            J03380055        J03380267        2.454      0.01       0          0          0          0         
21844            J03380034        J03380033        4.444      0.01       0          0.06       0          0         
21845            J03193113        J03193121        7.273      0.01       0          0          0          0         
21846            J03193114        J03193110        6.627      0.01       0.02       0          0          0         
21847            J03193105        J03193114        30.64      0.01       0          0          0          0         
21848            J03193110        J03193117        5.059      0.01       0.01       0.04       0          0         
21851            J03380252        J03380254        2.35       0.01       0.02       0          0          0         
21852            J03380252        J03380248        21.271     0.01       0          0          0          0         
21854            J03190138        J03010003        36.701     0.01       0          0          0          0         
21858            J03190142        J03010003        42.343     0.01       0          1.28       0          0         
21859            J03380356        J03388007        4.021      0.01       0          0          0          0         
21862            J03196573        J03380218        13.218     0.01       0          0.06       0          0         
21864            J03196571        J03380218        1.412      0.01       0          0          0          0         
21866            J03380207        J03380209        1.461      0.01       0          0.04       0          0         
22116            J03235046        J03235049        3.15       0.01       0          0.55       0          0         
22117            J03235052        J03235051        2.23       0.01       0          0.6        0          0         
22282            J03351048        J03351047        2          0.01       0          0.02       0          0         
22575            J03262004        J03262003        6.871      0.01       0.42       0.08       0          0         
22576            J03260055        J03260054        1.789      0.01       0          3.29       0          0         
22580            J03260032        J03260033        8.115      0.01       0          0.54       0          0         
22581            J03260034        J03260033        1.542      0.01       0          1.76       0          0         
22582            J03260059        J03260063        43.166     0.01       0          0          0          0         
22583            J03260058        J03260059        5.405      0.01       0          1.23       0          0         
22585            J03411019        J03411018        1.195      0.01       0          0.77       0          0         
22586            J03411020        J03411018        8.367      0.01       0.65       0          0          0         
22587            J03411079        J06103061        2.596      0.01       0          0          0          0         
22588            J03411080        J03411020        3.071      0.01       0.37       0          0          0         
22589            J03411080        J03411079        11.056     0.01       0.64       0          0          0         
22590            J03411081        J03411080        7.557      0.01       0          0          0          0         
22591            J03263082        J03263080        1.928      0.01       0          0.63       0          0         
22592            J03263081        J03263082        4.204      0.01       0          0          0          0         
22596            J03263010        J03263007        8.479      0.01       0.07       0.04       0          0         
22597            J03263012        J03263005        16.902     0.01       0          0.09       0          0         
22598            J03263015        J03263012        3.361      0.01       0.02       0.08       0          0         
22599            J03261012        J03261011        1.627      0.01       0          1.4        0          0         
22601            J03261013        J03261014        4.864      0.01       0          1.47       0          0         
22605            J03261009        J03260024        27.631     0.01       0.31       0          0          0         
22606            J03261011        J03261009        3.367      0.01       0          0.31       0          0         
22607            J03261014        J03261009        37.732     0.01       0          0          0          0         
22608            J03261010        J03261009        1.824      0.01       0          1.41       0          0         
22609            J03261015        J03261014        1.94       0.01       0          1.32       0          0         
22611            J03263004        J03263016        23.224     0.01       0          0          0          0         
22612            J03411018        J03266669        28.275     0.01       0.04       0          0          0         
22613            J03411015        J03266670        2          0.01       0          0.71       0          0         
22614            J03264964        J03411083        3.326      0.01       0          0.19       0          0         
22616            J03260051        J03260054        41.59      0.01       0          0          0          0         
22617            J03260052        J03260051        1.341      0.01       0          2.93       0          0         
22618            J03260050        J03260051        5.331      0.01       0          2.67       0          0         
22621            J03260060        J03260059        1.176      0.01       0          1.23       0          0         
22640            J03262120        J03262113        7.712      0.01       0.01       0.07       0          0         
22643            J03262128        J03262078        31.525     0.01       0          0          0          0         
22653            J03266226        J03263079        2.641      0.01       0.2        0.33       0          0         
22654            J03266227        J03263078        2.697      0.01       0          0.1        0          0         
22656            J03262098        J03262097        5.865      0.01       0          0          0          0         
22658            J03262119        J03262120        17.82      0.01       0          0          0          0         
22659            J03262121        J03262119        6.155      0.01       0          0.02       0          0         
22660            J03260048        J03260051        49.053     0.01       0          0          0          0         
22789            J03264882        J03351078        2          0.01       0.01       0.03       0          0         
22790            J03351078        J03264883        2          0.01       0          0          0          0         
22794            J03189836        J03352035        1.136      0.01       0          0.53       0          0         
22795            J03189837        J03352035        1.01       0.01       0          0.52       0          0         
22796            J03189839        J03352035        1.255      0.01       0          0.22       0          0         
22797            J03264862        J03351042        1.149      0.01       0          0.54       0          0         
22798            J03189842        J03352035        15.896     0.01       0          0.02       0          0         
22799            J03352037        J03189842        9.306      0.01       0          0          0          0         
22800            J03189843        J03352041        2          0.01       0          0.34       0          0         
22801            J03189844        J03352041        1.047      0.01       0          0.46       0          0         
22802            J03351046        J03351049        25.314     0.01       0          0          0          0         
22804            J03355147        J03351046        10.318     0.01       0          0          0          0         
22805            J03351044        J03355147        15.068     0.01       0.15       0          0          0         
22810            J03264872        J03351058        1.003      0.01       0          0          0          0         
22811            J03351056        J03264872        25.233     0.01       0          0          0          0         
22812            J03264883        J03351080        24.356     0.01       0          0          0          0         
22818            J03189847        J03352045        2          0.01       0          0.59       0          0         
22819            J03189848        J03352045        2          0.01       0          0          0          0         
22827            J03189834        J03352033        2          0.01       0          0.62       0          0         
22837            J03351067        J03264876        26.215     0.01       0          0          0          0         
22839            J03264875        J03351068        2          0.01       0          0.39       0          0         
22840            J03351070        J03264875        4.752      0.01       0.05       0          0          0         
22850            J03351068        J03351072        25.205     0.01       0.01       0.04       0          0         
22852            J03351075        J03351076        27.793     0.01       0          0.04       0          0         
22865            J03351092        J03351094        27.445     0.01       0          0          0          0         
22866            J03264894        J03351097        25.842     0.01       0          0          0          0         
23050            J03380124        J03380120        18.709     0.01       0.05       0.11       0          0         
23053            J03380127        J03380124        21.38      0.01       0          0          0          0         
23054            J03380131        J03380129        17.642     0.01       0.02       0          0          0         
23059            J03380136        J03380131        21.339     0.01       0          0          0          0         
23060            J03380170        J03380166        17.575     0.01       0          0          0          0         
23062            J03380173        J03380170        23.459     0.01       0          0.06       0          0         
23063            J03260426        J03380173        15.593     0.01       0.01       0.03       0          0         
23064            J03380077        J03380076        3.821      0.01       0          0          0          0         
23066            J03380085        J03380083        21.145     0.01       0          0.02       0          0         
23071            J03380180        J03380178        3.054      0.01       0          0.27       0          0         
23073            J03380155        J03380152        21.175     0.01       0          0          0          0         
23075            J03380165        J03380162        4.784      0.01       0          0          0          0         
23077            J03380088        J03380235        15.137     0.01       0          0.06       0          0         
23078            J03380092        J03380089        21.181     0.01       0          0.03       0          0         
23079            J03380075        J03380073        15.949     0.01       0          0.05       0          0         
23081            J03380335        J03380346        31.306     0.01       0.01       0.01       0          0         
23082            J03380057        J03380282        1.774      0.01       0          0          0          0         
23083            J03380282        J03380056        5.002      0.01       0          0          0          0         
23084            J03380286        J03380288        2          0.01       0          0          0          0         
23085            J03380266        J03380053        18.66      0.01       0          0.01       0          0         
23087            J03380288        J03380287        15.056     0.01       0          0          0          0         
23088            J03380287        J03380289        8.351      0.01       0.03       0.03       0          0         
23090            J03380033        J03380032        5.346      0.01       0          0.83       0          0         
23092            J03380305        J03160546        6.406      0.01       0          0.01       0          0         
23093            J03380302        J03380305        25.201     0.01       0.06       0.1        0          0         
23094            J03380040        J03380032        37.133     0.01       0          0          0          0         
23095            J03380037        J03380040        5.588      0.01       0          0.76       0          0         
23097            J03380053        J03380047        31.142     0.01       0          0.01       0          0         
23098            J03380290        J03380292        8.064      0.01       0          0          0          0         
23099            J03380010        J03380007        32.089     0.01       0          0          0          0         
23102            J03380018        J03380016        6.012      0.01       0          1.17       0          0         
23110            J03380352        J03191001        11.12      0.01       0          0.19       0          0         
23112            J03380349        J03380352        24.525     0.01       0          0          0          0         
23113            J03160546        J03166604        6.26       0.01       0.42       0.77       0          0         
23114            J03380331        J03380327        2.763      0.01       0          1.23       0          0         
23115            J03380029        J03166604        2.859      0.01       0          0          0          0         
23116            J03380102        J03380100        21.086     0.01       0.03       0          0          0         
23117            J03380104        J03380102        21.34      0.01       0.07       0          0          0         
23119            J03380109        J03380106        11.835     0.01       0          0.01       0          0         
23120            J03380113        J03380109        9.497      0.01       0          0          0          0         
23122            J03380117        J03380113        9.187      0.01       0          0.03       0          0         
23123            J03380120        J03380117        15.566     0.01       0          0          0          0         
23147            G03160070        J03380057        23.636     0.01       0.03       0          0          0         
23148            G03160069        G03160070        3.581      0.01       0          0.9        0          0         
23150            J03260414        J03260412        29.025     0.01       0          0.02       0          0         
23152            J03260544        J03260542        5.057      0.01       0          0.39       0          0         
23158            J03260571        J03260574        25.183     0.01       0          0          0          0         
23159            J03260099        J03260097        25.016     0.01       0          0          0          0         
23163            J03260407        J03260405        27.056     0.01       0.03       0          0          0         
23164            J03260408        J03260407        25.078     0.01       0          0          0          0         
23165            J03260410        J03260408        25         0.01       0          0.01       0          0         
23167            J03260412        J03260410        25.124     0.01       0          0          0          0         
23171            J03260401        J03464880        2          0.01       0          0.08       0          0         
23172            J03260403        J03464880        16.421     0.01       0          0          0          0         
23190            J03260157        J03260156        10.937     0.01       0          0          0          0         
23191            J03260159        J03260157        10.404     0.01       0          0          0          0         
23192            J03260161        J03260159        2.006      0.01       0          0          0          0         
23193            J03260160        J03260159        2.147      0.01       0          0.62       0          0         
23199            J03260172        J03260171        10.574     0.01       0          0.04       0          0         
23200            J03260174        J03260172        1.588      0.01       0          0.04       0          0         
23204            J03260167        J03260166        1.384      0.01       0          0.26       0          0         
23207            J03260154        J03260151        32.431     0.01       0          0          0          0         
23478            J03380264        J03380267        9.814      0.01       0          0          0          0         
23524            J03191017        J03191016        6.347      0.01       0          0          0          0         
25966            J03166622        J03380195        1.531      0.01       0          0.63       0          0         
26838            J03380238        J03191100        5.156      0.01       0          0          0          0         
26852            J03260080        J03260081        5.82       0.01       0          0.03       0          0         
26855            J03380210        J03380209        2.624      0.01       0          0.2        0          0         
27342            J03380199        J03380201        21.09      0.01       0          0          0          0         
31188            J03380148        J03380145        21.129     0.01       0          0          0          0         
31937            J03380058        J03380057        5.836      0.01       0          0.24       0          0         
32535            J03352010        J03352009        1.23       0.01       0          0.67       0          0         
34331            J03380323        J03380322        4.514      0.01       0          1.08       0          0         
36494            J03380209        J03380211        21.238     0.01       0          0          0          0         
38189            J03195537        J03380221        10.427     0.01       0          0          0          0         
38190            J03190096        J03190094        14.508     0.01       0          1.075      0          0         
38193            J03411012        J03266670        22.087     0.01       0          0          0          0         
38250            J03180002        J03180003        2.426      0.01       0          0.25       0          0         
38555            J03380178        J03380182        21.124     0.01       0.13       0          0          0         
38575            J03189840        J03352037        2          0.01       0          0.53       0          0         
38710            J03180077        J03180074        5.745      0.01       0          0.13       0          0         
38711            J03180080        J03180074        27.286     0.01       0          0          0          0         
38712            J03180083        J03180080        27.06      0.01       0          0.01       0          0         
38869            J03180103        J03180105        2.26       0.01       0          0.23       0          0         
38870            J03191016        J03191015        22.972     0.01       0.02       0.04       0          0         
38873            J03165846        J03351071        2          0.01       0          0          0          0         
38889            J03190026        J03190025        3.979      0.01       0          1.576      0          0         
39004            J03180100        J03180092        11.061     0.01       0          0          0          0         
39117            J03193099        J03193100        1.01       0.01       0          0.41       0          0         
39149            J03260031        J03260029        4.667      0.01       0          1.91       0          0         
39247            J03260090        J03260088        22.993     0.01       0.05       0.01       0          0         
39284            J03380346        J03380349        8.875      0.01       0          0.04       0          0         
39378            J03262096        J03262126        6.712      0.01       0          0.08       0          0         
39379            J03262097        J03262096        2.843      0.01       0          0.52       0          0         
39419            J03193127        J03193123        15.121     0.01       0          0          0          0         
39469            J03235042        J03235041        1.548      0.01       0          0.55       0          0         
39514            J03260027        J03260026        1.462      0.01       0          1.89       0          0         
39537            J03380071        J03380065        21.166     0.01       0.01       0          0          0         
39563            J03380177        J03380178        21.213     0.01       0          0          0          0         
39936            J03262094        J03262073        13.376     0.01       0          0          0          0         
39937            J03260041        J03262001        60.809     0.01       0          0          0          0         
40173            J03190145        J03190142        44.492     0.01       0          0          0          0         
40224            J03235006        J03235001        17.558     0.01       0          0          0          0         
40244            J03264960        J03411083        30.082     0.01       0          0.16       0          0         
40245            J03411080        J03264960        47.82      0.01       0.64       0.03       0          0         
40248            J03262114        J03262096        15.961     0.01       0          0.06       0          0         
40249            J03262127        J03262126        2.135      0.01       0          0.55       0          0         
40372            J03262073        J03262068        3.308      0.01       0.01       0.95       0          0         
40373            J03262001        J03262031        44.425     0.01       0.06       0          0          0         
40386            J03380284        J03380282        9.408      0.01       0          0          0          0         
40388            J03380281        J03380288        6.67       0.01       0.19       0          0          0         
40448            J03180081        J03180080        2.389      0.01       0          0.11       0          0         
40679            J03262070        J03262069        3.454      0.01       0          0          0          0         
40680            J03262078        J03262070        26.169     0.01       0          0.04       0          0         
40713            J03189841        J03352037        2          0.01       0          0.54       0          0         
40793            J03352041        J03352144        9.304      0.01       0.01       0          0          0         
41025            J03193083        J03195666        1.379      0.01       0          0          0          0         
41038            J03380081        J03380079        21.165     0.01       0          0          0          0         
41039            J03380083        J03380081        21.123     0.01       0          0.01       0          0         
41097            J03190092        J03190091        1.764      0.01       0          1.689      0          0         
41114            J03235058        J03235049        10.913     0.01       0          0.07       0          0         
41149            J03235001        J03351040        1.859      0.01       0.74       0.26       0          0         
41181            J03260062        J03260063        1.813      0.01       0          1.25       0          0         
41182            J03260064        J03260063        4.718      0.01       0          1.32       0          0         
41183            J03262126        J03262128        2.724      0.01       0          0.5        0          0         
41204            J03160705        J03380332        10.16      0.01       0          0          0          0         
41367            J03351058        J03351067        25.565     0.01       0          0.03       0          0         
41543            J03380221        J03380223        20.881     0.01       0.03       0.19       0          0         
41557            J03260025        J03260024        2          0.01       0          1.7        0          0         
41561            J03263052        J03263039        23.059     0.01       0.07       0          0          0         
41562            J03235081        J03235069        6.682      0.01       0          0.65       0          0         
41661            J03263080        J03263075        27.674     0.01       0          0.02       0          0         
41712            J03380184        J03380186        21.067     0.01       0          0.04       0          0         
42042            J03191952        J03191010        2          0.01       0          0.31       0          0         
42043            J03191008        J03191010        1.376      0.01       0          0.29       0          0         
42079            J03380198        J03166623        1.302      0.01       0          0          0          0         
42080            J03380200        J03380199        2.938      0.01       0          0.33       0          0         
42081            J03380137        J03380136        12.328     0.01       0          0          0          0         
42082            J03380145        J03380142        19.124     0.01       0.03       0          0          0         
42085            J03260164        J03260162        21.338     0.01       0          0          0          0         
42514            J03380206        J03380201        2.887      0.01       0          0.63       0          0         
42515            J03266707        J03260536        10.007     0.01       0          0          0          0         
42541            J03180079        J03180080        2.082      0.01       0          0.58       0          0         
42568            J03263058        J03263052        28.501     0.01       0.07       0          0          0         
42610            J03260047        J03260048        5.065      0.01       0          2.66       0          0         
42644            J03180009        J03180010        2.084      0.01       0          0.12       0          0         
42711            J03193081        J03193080        29.147     0.01       0          0          0          0         
42712            J03193152        J03193150        3.212      0.01       0          0          0          0         
42713            J03193037        J03191983        35.738     0.01       0          0          0          0         
42714            J03380201        J03380207        26.423     0.01       0          0          0          0         
42715            J03380173        J03260425        14.037     0.01       0          0          0          0         
42716            J03380182        J03380184        21.043     0.01       0          0          0          0         
42717            J03380197        J03380199        21.096     0.01       0          0          0          0         
42718            J03464880        J03260099        8.661      0.01       0          0          0          0         
42719            J03260536        J03260538        23.69      0.01       0          0          0          0         
42720            J03351080        J03351083        25.378     0.01       0          0          0          0         
42721            J03260424        J03260536        20.106     0.01       0          0          0          0         
42722            J03260054        J03260059        34.755     0.01       0          0          0          0         
42723            J03260095        J03260093        24.952     0.01       0          0          0          0         
42724            J03263016        J03260024        21.951     0.01       0          0          0          0         
42725            J03263039        J03263024        9.646      0.01       0          0          0          0         
42726            J03263001        J03263016        7.745      0.01       0          0          0          0         
42727            J06103061        J03263080        12.153     0.01       0          0          0          0         
42728            J03352045        J03180124        11.583     0.01       0          0          0          0         
42730            J03380065        J03380060        42.296     0.01       0          0          0          0         
42731            J03351051        J03351056        52.657     0.01       0          0          0          0         
42732            J03352026        J03352017        113.891    0.01       0          0          0          0         
42733            J03352007        J03352005        25.203     0.01       0          0          0          0         
42734            J03260156        J03260154        11.1       0.01       0          0          0          0         
42735            J03193121        J03380037        9.476      0.01       0          0          0          0         
42736            J03380042        J03380040        28.013     0.01       0          0          0          0         
42737            J03193164        J03190134        51.773     0.01       0          0          0          0         
42738            J03380129        J03380127        1.503      0.01       0          0          0          0         
42739            J03260577        J03464880        18.151     0.01       0          0          0          0         
42740            J03260088        J03190025        98.973     0.01       0          0.446      0          0         
42742            J03235001        J03352043        16.68      0.01       0          0          0          0         

[PUMPS]
;;Name           From Node        To Node          Pump Curve       Status   Sartup Shutoff 
;;-------------- ---------------- ---------------- ---------------- ------ -------- --------
P1               J03193130        J03190134        P1_DRY           ON     0.15     0.05    
P2               J03260054        J03260059        P2_DRY           ON     0.3      0.1     

[XSECTIONS]
;;Link           Shape        Geom1            Geom2      Geom3      Geom4      Barrels    Culvert   
;;-------------- ------------ ---------------- ---------- ---------- ---------- ---------- ----------
34               CIRCULAR     0.3              0.3        0          0          1                    
63               CIRCULAR     0.4              0.4        0          0          1                    
95               CIRCULAR     0.4              0.4        0          0          1                    
100              CIRCULAR     0.3              0.3        0          0          1                    
129              CIRCULAR     0.6              0.6        0          0          1                    
325              CIRCULAR     1                1          0          0          1                    
783              RECT_CLOSED  0.2              0.1        0          0          1                    
832              CIRCULAR     1.2              1.2        0          0          1                    
841              CIRCULAR     0.8              0.8        0          0          1                    
842              CIRCULAR     0.3              0.3        0          0          1                    
1612             CIRCULAR     1                1          0          0          1                    
1806             CIRCULAR     0.3              0.3        0          0          1                    
1941             CIRCULAR     0.16             0.16       0          0          1                    
2487             CIRCULAR     0.6              0.6        0          0          1                    
2488             CIRCULAR     0.6              0.6        0          0          1                    
2543             CIRCULAR     0.8              0.8        0          0          1                    
2627             RECT_CLOSED  1.25             1.8        0          0          1                    
2628             CIRCULAR     0.7              0.7        0          0          1                    
2629             CIRCULAR     0.8              0.8        0          0          1                    
2630             CIRCULAR     0.7              0.7        0          0          1                    
2631             CIRCULAR     0.7              0.7        0          0          1                    
2632             CIRCULAR     0.7              0.7        0          0          1                    
2649             RECT_CLOSED  0.15             0.15       0          0          1                    
2941             RECT_CLOSED  0.3              0.2        0          0          1                    
3101             CIRCULAR     0.8              0.8        0          0          1                    
3137             CIRCULAR     0.7              0.7        0          0          1                    
3147             CIRCULAR     0.6              0.6        0          0          1                    
3166             RECT_CLOSED  1.27             1.8        0          0          1                    
3332             RECT_CLOSED  0.5              0.25       0          0          1                    
3334             CIRCULAR     0.4              0.4        0          0          1                    
3335             CIRCULAR     0.4              0.4        0          0          1                    
3336             RECT_CLOSED  0.2              0.1        0          0          1                    
3339             RECT_CLOSED  0.5              0.3        0          0          1                    
3369             CIRCULAR     0.6              0.6        0          0          1                    
3370             RECT_CLOSED  1.25             1.8        0          0          1                    
3372             CIRCULAR     0.8              0.8        0          0          1                    
3424             CIRCULAR     0.4              0.4        0          0          1                    
3459             RECT_CLOSED  0.5              0.3        0          0          1                    
3553             RECT_CLOSED  0.1              0.1        0          0          1                    
3572             CIRCULAR     0.3              0.3        0          0          1                    
3578             CIRCULAR     0.3              0.3        0          0          1                    
3580             CIRCULAR     0.15             0.15       0          0          1                    
3586             CIRCULAR     0.4              0.4        0          0          1                    
3590             CIRCULAR     0.4              0.4        0          0          1                    
3591             CIRCULAR     0.4              0.4        0          0          1                    
3596             CIRCULAR     0.4              0.4        0          0          1                    
3673             CIRCULAR     0.4              0.4        0          0          1                    
3679             CIRCULAR     0.6              0.6        0          0          1                    
3716             CIRCULAR     0.4              0.4        0          0          1                    
3755             CIRCULAR     0.7              0.7        0          0          1                    
3774             CIRCULAR     0.4              0.4        0          0          1                    
3781             CIRCULAR     0.6              0.6        0          0          1                    
3808             CIRCULAR     0.8              0.8        0          0          1                    
3826             CIRCULAR     0.8              0.8        0          0          1                    
3827             CIRCULAR     0.6              0.6        0          0          1                    
3832             CIRCULAR     0.4              0.4        0          0          1                    
3864             CIRCULAR     0.4              0.4        0          0          1                    
3904             CIRCULAR     0.3              0.3        0          0          1                    
4236             CIRCULAR     0.3              0.3        0          0          1                    
4245             CIRCULAR     0.3              0.3        0          0          1                    
4268             CIRCULAR     0.3              0.3        0          0          1                    
4271             CIRCULAR     0.3              0.3        0          0          1                    
4273             CIRCULAR     0.6              0.6        0          0          1                    
4291             CIRCULAR     0.6              0.6        0          0          1                    
4292             CIRCULAR     0.6              0.6        0          0          1                    
4293             CIRCULAR     0.4              0.4        0          0          1                    
4294             CIRCULAR     0.6              0.6        0          0          1                    
4476             CIRCULAR     0.6              0.6        0          0          1                    
4486             CIRCULAR     0.3              0.3        0          0          1                    
4518             CIRCULAR     0.4              0.4        0          0          1                    
4520             CIRCULAR     0.7              0.7        0          0          1                    
4533             CIRCULAR     0.4              0.4        0          0          1                    
4617             CIRCULAR     0.6              0.6        0          0          1                    
4644             CIRCULAR     0.5              0.5        0          0          1                    
4680             CIRCULAR     0.4              0.4        0          0          1                    
4691             RECT_CLOSED  0.4              0.25       0          0          1                    
4714             CIRCULAR     0.4              0.4        0          0          1                    
4783             CIRCULAR     0.8              0.8        0          0          1                    
4983             CIRCULAR     0.3              0.3        0          0          1                    
5044             CIRCULAR     0.8              0.8        0          0          1                    
5066             CIRCULAR     0.3              0.3        0          0          1                    
5183             CIRCULAR     0.4              0.4        0          0          1                    
5262             CIRCULAR     0.16             0.16       0          0          1                    
5289             CIRCULAR     0.2              0.2        0          0          1                    
5327             CIRCULAR     0.6              0.6        0          0          1                    
5328             CIRCULAR     0.3              0.3        0          0          1                    
5329             CIRCULAR     0.4              0.4        0          0          1                    
5372             CIRCULAR     0.6              0.6        0          0          1                    
5379             CIRCULAR     0.3              0.3        0          0          1                    
5383             CIRCULAR     0.6              0.6        0          0          1                    
5564             CIRCULAR     0.7              0.7        0          0          1                    
5646             CIRCULAR     0.7              0.7        0          0          1                    
5734             CIRCULAR     0.5              0.5        0          0          1                    
5754             CIRCULAR     0.6              0.6        0          0          1                    
5796             CIRCULAR     0.3              0.3        0          0          1                    
5799             CIRCULAR     0.16             0.16       0          0          1                    
5884             CIRCULAR     0.25             0.25       0          0          1                    
5963             RECT_CLOSED  1.6              1.6        0          0          1                    
6198             CIRCULAR     0.4              0.4        0          0          1                    
6200             CIRCULAR     0.6              0.6        0          0          1                    
6935             CIRCULAR     0.4              0.4        0          0          1                    
7035             CIRCULAR     0.3              0.3        0          0          1                    
7084             CIRCULAR     0.6              0.6        0          0          1                    
7105             CIRCULAR     0.4              0.4        0          0          1                    
7282             CIRCULAR     0.3              0.3        0          0          1                    
7373             CIRCULAR     0.4              0.4        0          0          1                    
7495             CIRCULAR     0.16             0.16       0          0          1                    
7498             CIRCULAR     0.16             0.16       0          0          1                    
8063             CIRCULAR     0.5              0.5        0          0          1                    
8274             CIRCULAR     0.4              0.4        0          0          1                    
8293             CIRCULAR     0.4              0.4        0          0          1                    
8294             CIRCULAR     0.2              0.2        0          0          1                    
8295             RECT_CLOSED  0.2              0.2        0          0          1                    
8305             RECT_CLOSED  1.6              1.6        0          0          1                    
8423             RECT_CLOSED  0.5              0.5        0          0          1                    
8614             CIRCULAR     0.4              0.4        0          0          1                    
8670             CIRCULAR     0.4              0.4        0          0          1                    
8894             CIRCULAR     0.6              0.6        0          0          1                    
9134             CIRCULAR     0.6              0.6        0          0          1                    
9700             CIRCULAR     0.6              0.6        0          0          1                    
9703             RECT_CLOSED  0.7              0.6        0          0          1                    
9704             RECT_CLOSED  0.7              0.6        0          0          1                    
9736             CIRCULAR     0.3              0.3        0          0          1                    
10024            CIRCULAR     0.4              0.4        0          0          1                    
10072            RECT_CLOSED  1.34             0.5        0          0          1                    
10076            CIRCULAR     0.4              0.4        0          0          1                    
10117            CIRCULAR     0.8              0.8        0          0          1                    
10119            RECT_CLOSED  0.3              0.2        0          0          1                    
10124            RECT_CLOSED  1                1.8        0          0          1                    
10130            RECT_CLOSED  0.3              0.15       0          0          1                    
10138            CIRCULAR     0.5              0.5        0          0          1                    
10144            CIRCULAR     0.25             0.25       0          0          1                    
10146            RECT_CLOSED  1.25             1.8        0          0          1                    
10148            CIRCULAR     0.25             0.25       0          0          1                    
10158            RECT_CLOSED  0.2              0.2        0          0          1                    
10159            CIRCULAR     0.4              0.4        0          0          1                    
10161            CIRCULAR     0.3              0.3        0          0          1                    
10162            RECT_CLOSED  0.42             0.22       0          0          1                    
10164            RECT_CLOSED  1.27             1.8        0          0          1                    
10211            RECT_CLOSED  1.25             1.8        0          0          1                    
10242            RECT_CLOSED  1.25             1.8        0          0          1                    
10264            CIRCULAR     0.6              0.6        0          0          1                    
10284            CIRCULAR     0.7              0.7        0          0          1                    
10363            CIRCULAR     0.3              0.3        0          0          1                    
10405            CIRCULAR     0.3              0.3        0          0          1                    
10464            CIRCULAR     0.8              0.8        0          0          1                    
10601            CIRCULAR     0.6              0.6        0          0          1                    
10602            CIRCULAR     0.3              0.3        0          0          1                    
10605            CIRCULAR     0.3              0.3        0          0          1                    
10607            CIRCULAR     1                1          0          0          1                    
10608            CIRCULAR     0.4              0.4        0          0          1                    
10671            CIRCULAR     0.4              0.4        0          0          1                    
10690            CIRCULAR     0.8              0.8        0          0          1                    
10691            CIRCULAR     0.6              0.6        0          0          1                    
10744            RECT_CLOSED  0.4              0.4        0          0          1                    
10746            CIRCULAR     0.4              0.4        0          0          1                    
10833            CIRCULAR     0.6              0.6        0          0          1                    
10845            RECT_CLOSED  0.3              0.3        0          0          1                    
10879            RECT_CLOSED  0.4              0.18       0          0          1                    
11139            CIRCULAR     0.6              0.6        0          0          1                    
11172            CIRCULAR     0.4              0.4        0          0          1                    
11209            CIRCULAR     0.3              0.3        0          0          1                    
12024            CIRCULAR     1                1          0          0          1                    
12611            CIRCULAR     0.7              0.7        0          0          1                    
12612            RECT_CLOSED  0.3              0.26       0          0          1                    
12613            RECT_CLOSED  0.3              0.26       0          0          1                    
12615            RECT_CLOSED  0.3              0.26       0          0          1                    
12620            CIRCULAR     0.25             0.25       0          0          1                    
12621            CIRCULAR     0.25             0.25       0          0          1                    
12622            CIRCULAR     0.16             0.16       0          0          1                    
12633            CIRCULAR     0.5              0.5        0          0          1                    
12636            CIRCULAR     1                1          0          0          1                    
12637            CIRCULAR     0.5              0.5        0          0          1                    
12638            CIRCULAR     0.11             0.11       0          0          1                    
12643            CIRCULAR     0.5              0.5        0          0          1                    
12644            CIRCULAR     0.5              0.5        0          0          1                    
12649            CIRCULAR     0.6              0.6        0          0          1                    
12650            CIRCULAR     0.8              0.8        0          0          1                    
12652            CIRCULAR     0.8              0.8        0          0          1                    
12653            CIRCULAR     0.6              0.6        0          0          1                    
12654            CIRCULAR     0.6              0.6        0          0          1                    
12656            CIRCULAR     0.7              0.7        0          0          1                    
12660            CIRCULAR     0.8              0.8        0          0          1                    
12661            CIRCULAR     0.3              0.3        0          0          1                    
12662            CIRCULAR     0.3              0.3        0          0          1                    
12663            CIRCULAR     0.3              0.3        0          0          1                    
12664            CIRCULAR     0.6              0.6        0          0          1                    
12665            CIRCULAR     0.6              0.6        0          0          1                    
12668            CIRCULAR     0.6              0.6        0          0          1                    
12673            CIRCULAR     0.6              0.6        0          0          1                    
12676            CIRCULAR     0.6              0.6        0          0          1                    
12678            CIRCULAR     1                1          0          0          1                    
12679            CIRCULAR     0.3              0.3        0          0          1                    
12681            CIRCULAR     0.5              0.5        0          0          1                    
12682            CIRCULAR     0.5              0.5        0          0          1                    
12683            CIRCULAR     0.5              0.5        0          0          1                    
12685            CIRCULAR     0.5              0.5        0          0          1                    
12686            CIRCULAR     0.5              0.5        0          0          1                    
12687            CIRCULAR     0.5              0.5        0          0          1                    
12688            CIRCULAR     0.5              0.5        0          0          1                    
12690            CIRCULAR     0.8              0.8        0          0          1                    
12691            CIRCULAR     0.5              0.5        0          0          1                    
12692            RECT_CLOSED  0.5              0.5        0          0          1                    
12694            RECT_CLOSED  1.6              1.6        0          0          1                    
12697            CIRCULAR     0.3              0.3        0          0          1                    
12698            CIRCULAR     0.5              0.5        0          0          1                    
12699            CIRCULAR     0.8              0.8        0          0          1                    
12700            CIRCULAR     0.8              0.8        0          0          1                    
12760            CIRCULAR     0.2              0.2        0          0          1                    
12761            CIRCULAR     0.3              0.3        0          0          1                    
12865            CIRCULAR     0.8              0.8        0          0          1                    
12866            CIRCULAR     0.6              0.6        0          0          1                    
12870            CIRCULAR     0.4              0.4        0          0          1                    
12871            CIRCULAR     0.3              0.3        0          0          1                    
12872            CIRCULAR     1                1          0          0          1                    
12873            CIRCULAR     0.8              0.8        0          0          1                    
12874            CIRCULAR     0.8              0.8        0          0          1                    
12875            CIRCULAR     0.8              0.8        0          0          1                    
12876            CIRCULAR     0.8              0.8        0          0          1                    
12877            RECT_CLOSED  0.2              0.2        0          0          1                    
12878            CIRCULAR     0.6              0.6        0          0          1                    
12880            CIRCULAR     0.3              0.3        0          0          1                    
12884            CIRCULAR     0.6              0.6        0          0          1                    
12888            CIRCULAR     0.3              0.3        0          0          1                    
12889            CIRCULAR     0.4              0.4        0          0          1                    
12890            CIRCULAR     0.4              0.4        0          0          1                    
12892            CIRCULAR     0.3              0.3        0          0          1                    
12893            CIRCULAR     0.4              0.4        0          0          1                    
12894            CIRCULAR     0.4              0.4        0          0          1                    
12895            CIRCULAR     0.2              0.2        0          0          1                    
12897            CIRCULAR     1                1          0          0          1                    
12903            CIRCULAR     0.4              0.4        0          0          1                    
12904            CIRCULAR     0.2              0.2        0          0          1                    
12907            CIRCULAR     0.4              0.4        0          0          1                    
12940            RECT_CLOSED  0.5              0.5        0          0          1                    
12942            RECT_CLOSED  0.5              0.1        0          0          1                    
12978            CIRCULAR     0.6              0.6        0          0          1                    
12979            RECT_CLOSED  0.3              0.4        0          0          1                    
12980            CIRCULAR     0.6              0.6        0          0          1                    
12982            CIRCULAR     0.6              0.6        0          0          1                    
12983            CIRCULAR     0.6              0.6        0          0          1                    
12986            CIRCULAR     0.8              0.8        0          0          1                    
12987            CIRCULAR     0.8              0.8        0          0          1                    
12988            CIRCULAR     0.8              0.8        0          0          1                    
12989            CIRCULAR     0.8              0.8        0          0          1                    
12990            CIRCULAR     0.8              0.8        0          0          1                    
12991            CIRCULAR     0.8              0.8        0          0          1                    
12993            CIRCULAR     0.6              0.6        0          0          1                    
12994            CIRCULAR     0.6              0.6        0          0          1                    
12995            CIRCULAR     0.8              0.8        0          0          1                    
12996            CIRCULAR     0.8              0.8        0          0          1                    
12998            CIRCULAR     0.6              0.6        0          0          1                    
13000            CIRCULAR     0.6              0.6        0          0          1                    
13298            CIRCULAR     1                1          0          0          1                    
13357            CIRCULAR     0.5              0.5        0          0          1                    
13491            CIRCULAR     0.25             0.25       0          0          1                    
13492            CIRCULAR     0.4              0.4        0          0          1                    
13493            CIRCULAR     0.5              0.5        0          0          1                    
13494            CIRCULAR     0.5              0.5        0          0          1                    
13496            CIRCULAR     0.4              0.4        0          0          1                    
13512            CIRCULAR     0.8              0.8        0          0          1                    
13513            CIRCULAR     0.3              0.3        0          0          1                    
13524            CIRCULAR     0.4              0.4        0          0          1                    
13525            CIRCULAR     0.6              0.6        0          0          1                    
13560            CIRCULAR     0.3              0.3        0          0          1                    
13562            CIRCULAR     0.16             0.16       0          0          1                    
13569            CIRCULAR     0.3              0.3        0          0          1                    
13643            RECT_CLOSED  0.5              0.3        0          0          1                    
13801            CIRCULAR     0.6              0.6        0          0          1                    
13802            CIRCULAR     0.2              0.2        0          0          1                    
13820            RECT_CLOSED  0.4              0.4        0          0          1                    
13821            RECT_CLOSED  0.4              0.4        0          0          1                    
13936            CIRCULAR     0.3              0.3        0          0          1                    
13937            CIRCULAR     0.4              0.4        0          0          1                    
14073            CIRCULAR     0.4              0.4        0          0          1                    
14080            CIRCULAR     0.6              0.6        0          0          1                    
14101            CIRCULAR     0.8              0.8        0          0          1                    
14137            CIRCULAR     1.2              1.2        0          0          1                    
14141            CIRCULAR     1                1          0          0          1                    
14208            CIRCULAR     0.3              0.3        0          0          1                    
14270            CIRCULAR     0.6              0.6        0          0          1                    
14272            CIRCULAR     0.6              0.6        0          0          1                    
14472            CIRCULAR     0.6              0.6        0          0          1                    
14475            CIRCULAR     0.16             0.16       0          0          1                    
14478            CIRCULAR     0.6              0.6        0          0          1                    
14574            CIRCULAR     0.6              0.6        0          0          1                    
14707            CIRCULAR     0.3              0.3        0          0          1                    
14739            RECT_CLOSED  1.27             1.8        0          0          1                    
14745            CIRCULAR     1                1          0          0          1                    
14749            CIRCULAR     0.6              0.6        0          0          1                    
14765            CIRCULAR     0.4              0.4        0          0          1                    
14950            CIRCULAR     0.3              0.3        0          0          1                    
15152            CIRCULAR     0.4              0.4        0          0          1                    
15171            CIRCULAR     0.4              0.4        0          0          1                    
15187            CIRCULAR     0.6              0.6        0          0          1                    
15242            CIRCULAR     0.6              0.6        0          0          1                    
15277            CIRCULAR     0.4              0.4        0          0          1                    
15281            CIRCULAR     0.6              0.6        0          0          1                    
15332            CIRCULAR     0.4              0.4        0          0          1                    
15333            CIRCULAR     0.3              0.3        0          0          1                    
15362            CIRCULAR     0.6              0.6        0          0          1                    
15806            CIRCULAR     1                1          0          0          1                    
16419            CIRCULAR     2                1          0          0          1                    
16476            CIRCULAR     0.4              0.4        0          0          1                    
16575            CIRCULAR     0.4              0.4        0          0          1                    
16654            CIRCULAR     1.2              1.2        0          0          1                    
16672            CIRCULAR     0.8              0.8        0          0          1                    
16865            CIRCULAR     1                1          0          0          1                    
16887            CIRCULAR     1                1          0          0          1                    
16908            CIRCULAR     0.3              0.3        0          0          1                    
16909            RECT_CLOSED  0.12             0.12       0          0          1                    
17523            CIRCULAR     0.4              0.4        0          0          1                    
17571            CIRCULAR     1                1          0          0          1                    
17580            CIRCULAR     0.5              0.5        0          0          1                    
17703            RECT_CLOSED  0.4              0.35       0          0          1                    
17714            CIRCULAR     0.4              0.4        0          0          1                    
17715            CIRCULAR     0.4              0.4        0          0          1                    
17766            CIRCULAR     0.3              0.3        0          0          1                    
17896            CIRCULAR     0.5              0.5        0          0          1                    
17908            CIRCULAR     0.4              0.4        0          0          1                    
17926            CIRCULAR     1                1          0          0          1                    
17953            CIRCULAR     0.5              0.5        0          0          1                    
18020            CIRCULAR     0.3              0.3        0          0          1                    
18084            CIRCULAR     1                1          0          0          1                    
18113            CIRCULAR     0.4              0.4        0          0          1                    
18330            CIRCULAR     0.4              0.4        0          0          1                    
18338            CIRCULAR     1                1          0          0          1                    
18383            CIRCULAR     0.6              0.6        0          0          1                    
18387            CIRCULAR     0.3              0.3        0          0          1                    
18389            CIRCULAR     0.4              0.4        0          0          1                    
18423            CIRCULAR     0.3              0.3        0          0          1                    
18530            CIRCULAR     1                1          0          0          1                    
19043            CIRCULAR     0.3              0.3        0          0          1                    
19132            CIRCULAR     0.4              0.4        0          0          1                    
19193            CIRCULAR     1                1          0          0          1                    
19227            CIRCULAR     0.4              0.4        0          0          1                    
19440            CIRCULAR     0.16             0.16       0          0          1                    
19717            CIRCULAR     0.6              0.6        0          0          1                    
19838            CIRCULAR     0.4              0.4        0          0          1                    
19850            RECT_CLOSED  1.6              0.5        0          0          1                    
19910            CIRCULAR     0.2              0.2        0          0          1                    
20466            CIRCULAR     0.2              0.2        0          0          1                    
20474            CIRCULAR     0.6              0.6        0          0          1                    
20518            CIRCULAR     0.4              0.4        0          0          1                    
20519            CIRCULAR     0.16             0.16       0          0          1                    
20520            CIRCULAR     0.4              0.4        0          0          1                    
20521            RECT_CLOSED  0.15             0.15       0          0          1                    
20529            RECT_CLOSED  0.15             0.15       0          0          1                    
20530            CIRCULAR     0.4              0.4        0          0          1                    
20531            CIRCULAR     0.4              0.4        0          0          1                    
20532            CIRCULAR     0.4              0.4        0          0          1                    
20534            CIRCULAR     0.4              0.4        0          0          1                    
20535            CIRCULAR     0.25             0.25       0          0          1                    
20536            CIRCULAR     0.25             0.25       0          0          1                    
20538            CIRCULAR     0.4              0.4        0          0          1                    
20539            CIRCULAR     0.4              0.4        0          0          1                    
20540            CIRCULAR     0.25             0.25       0          0          1                    
20541            CIRCULAR     0.25             0.25       0          0          1                    
20542            CIRCULAR     0.25             0.25       0          0          1                    
20543            CIRCULAR     0.25             0.25       0          0          1                    
20544            CIRCULAR     0.11             0.11       0          0          1                    
20545            CIRCULAR     0.25             0.25       0          0          1                    
20546            CIRCULAR     0.25             0.25       0          0          1                    
20547            RECT_CLOSED  0.23             0.23       0          0          1                    
20548            CIRCULAR     0.25             0.25       0          0          1                    
20549            CIRCULAR     0.4              0.4        0          0          1                    
20550            CIRCULAR     0.4              0.4        0          0          1                    
20560            RECT_CLOSED  0.6              0.4        0          0          1                    
20569            CIRCULAR     0.4              0.4        0          0          1                    
20570            CIRCULAR     0.4              0.4        0          0          1                    
20571            RECT_CLOSED  0.6              0.4        0          0          1                    
20573            CIRCULAR     0.5              0.5        0          0          1                    
20577            CIRCULAR     0.3              0.3        0          0          1                    
20578            CIRCULAR     0.5              0.5        0          0          1                    
20579            CIRCULAR     0.5              0.5        0          0          1                    
20582            CIRCULAR     0.5              0.5        0          0          1                    
20584            CIRCULAR     0.5              0.5        0          0          1                    
20592            CIRCULAR     0.8              0.8        0          0          1                    
20594            CIRCULAR     0.7              0.7        0          0          1                    
20605            CIRCULAR     0.5              0.5        0          0          1                    
20606            CIRCULAR     0.5              0.5        0          0          1                    
20609            CIRCULAR     0.3              0.3        0          0          1                    
20611            CIRCULAR     0.5              0.5        0          0          1                    
20613            CIRCULAR     0.5              0.5        0          0          1                    
20615            CIRCULAR     0.5              0.5        0          0          1                    
20616            CIRCULAR     0.5              0.5        0          0          1                    
20618            CIRCULAR     0.5              0.5        0          0          1                    
20619            CIRCULAR     0.5              0.5        0          0          1                    
20622            CIRCULAR     0.4              0.4        0          0          1                    
20623            CIRCULAR     0.5              0.5        0          0          1                    
20624            CIRCULAR     0.5              0.5        0          0          1                    
20627            CIRCULAR     0.5              0.5        0          0          1                    
20628            CIRCULAR     0.5              0.5        0          0          1                    
20636            CIRCULAR     0.4              0.4        0          0          1                    
20637            CIRCULAR     0.6              0.6        0          0          1                    
20638            CIRCULAR     0.6              0.6        0          0          1                    
20639            CIRCULAR     0.6              0.6        0          0          1                    
20640            CIRCULAR     0.3              0.3        0          0          1                    
20641            RECT_CLOSED  0.31             0.2        0          0          1                    
20643            CIRCULAR     0.25             0.25       0          0          1                    
20644            CIRCULAR     0.4              0.4        0          0          1                    
20645            CIRCULAR     0.6              0.6        0          0          1                    
20646            CIRCULAR     0.4              0.4        0          0          1                    
20647            CIRCULAR     1                1          0          0          1                    
20648            CIRCULAR     0.8              0.8        0          0          1                    
20655            CIRCULAR     0.4              0.4        0          0          1                    
20683            CIRCULAR     0.25             0.25       0          0          1                    
20777            CIRCULAR     0.6              0.6        0          0          1                    
20821            CIRCULAR     0.4              0.4        0          0          1                    
20913            CIRCULAR     0.4              0.4        0          0          1                    
20942            CIRCULAR     0.6              0.6        0          0          1                    
20944            CIRCULAR     0.4              0.4        0          0          1                    
20945            CIRCULAR     1.2              1.2        0          0          1                    
20946            RECT_CLOSED  1.27             1.8        0          0          1                    
20953            CIRCULAR     0.4              0.4        0          0          1                    
20954            CIRCULAR     0.2              0.2        0          0          1                    
20956            CIRCULAR     0.6              0.6        0          0          1                    
20962            CIRCULAR     0.4              0.4        0          0          1                    
20992            CIRCULAR     0.4              0.4        0          0          1                    
20993            CIRCULAR     0.16             0.16       0          0          1                    
21040            CIRCULAR     0.4              0.4        0          0          1                    
21712            CIRCULAR     1                1          0          0          1                    
21714            CIRCULAR     0.8              0.8        0          0          1                    
21715            CIRCULAR     0.3              0.3        0          0          1                    
21742            CIRCULAR     1                1          0          0          1                    
21744            CIRCULAR     1                1          0          0          1                    
21746            CIRCULAR     0.5              0.5        0          0          1                    
21747            CIRCULAR     0.5              0.5        0          0          1                    
21748            CIRCULAR     0.5              0.5        0          0          1                    
21749            CIRCULAR     0.5              0.5        0          0          1                    
21750            CIRCULAR     0.5              0.5        0          0          1                    
21754            CIRCULAR     0.5              0.5        0          0          1                    
21757            CIRCULAR     1                1          0          0          1                    
21759            CIRCULAR     0.5              0.5        0          0          1                    
21760            CIRCULAR     0.5              0.5        0          0          1                    
21762            CIRCULAR     1.2              1.2        0          0          1                    
21763            CIRCULAR     0.4              0.4        0          0          1                    
21764            CIRCULAR     0.3              0.3        0          0          1                    
21765            CIRCULAR     0.4              0.4        0          0          1                    
21766            CIRCULAR     1                1          0          0          1                    
21767            CIRCULAR     0.4              0.4        0          0          1                    
21769            CIRCULAR     1.2              1.2        0          0          1                    
21770            CIRCULAR     0.4              0.4        0          0          1                    
21771            CIRCULAR     1.2              1.2        0          0          1                    
21772            CIRCULAR     0.3              0.3        0          0          1                    
21773            CIRCULAR     0.4              0.4        0          0          1                    
21774            CIRCULAR     0.4              0.4        0          0          1                    
21778            CIRCULAR     0.8              0.8        0          0          1                    
21780            RECT_CLOSED  0.6              0.6        0          0          1                    
21781            CIRCULAR     0.5              0.5        0          0          1                    
21784            CIRCULAR     0.5              0.5        0          0          1                    
21786            CIRCULAR     0.3              0.3        0          0          1                    
21787            CIRCULAR     0.6              0.6        0          0          1                    
21788            CIRCULAR     1.2              1.2        0          0          1                    
21789            CIRCULAR     0.8              0.8        0          0          1                    
21792            CIRCULAR     1                1          0          0          1                    
21793            CIRCULAR     0.3              0.3        0          0          1                    
21796            CIRCULAR     1                1          0          0          1                    
21799            RECT_CLOSED  0.5              0.2        0          0          1                    
21800            CIRCULAR     0.3              0.3        0          0          1                    
21803            CIRCULAR     1                1          0          0          1                    
21805            CIRCULAR     1                1          0          0          1                    
21806            CIRCULAR     1.2              1.2        0          0          1                    
21812            CIRCULAR     0.6              0.6        0          0          1                    
21814            CIRCULAR     0.3              0.3        0          0          1                    
21815            CIRCULAR     1                1          0          0          1                    
21817            CIRCULAR     0.3              0.3        0          0          1                    
21820            CIRCULAR     0.5              0.5        0          0          1                    
21821            CIRCULAR     0.4              0.4        0          0          1                    
21822            CIRCULAR     0.8              0.8        0          0          1                    
21823            CIRCULAR     0.8              0.8        0          0          1                    
21824            CIRCULAR     0.3              0.3        0          0          1                    
21826            CIRCULAR     0.8              0.8        0          0          1                    
21827            CIRCULAR     0.6              0.6        0          0          1                    
21828            CIRCULAR     0.6              0.6        0          0          1                    
21829            CIRCULAR     0.6              0.6        0          0          1                    
21830            CIRCULAR     0.6              0.6        0          0          1                    
21832            CIRCULAR     0.6              0.6        0          0          1                    
21833            CIRCULAR     0.6              0.6        0          0          1                    
21835            CIRCULAR     0.6              0.6        0          0          1                    
21836            CIRCULAR     0.6              0.6        0          0          1                    
21838            CIRCULAR     0.6              0.6        0          0          1                    
21839            CIRCULAR     0.6              0.6        0          0          1                    
21840            CIRCULAR     0.6              0.6        0          0          1                    
21841            CIRCULAR     0.3              0.3        0          0          1                    
21844            RECT_CLOSED  0.45             0.45       0          0          1                    
21845            CIRCULAR     0.6              0.6        0          0          1                    
21846            CIRCULAR     0.6              0.6        0          0          1                    
21847            CIRCULAR     0.6              0.6        0          0          1                    
21848            CIRCULAR     0.6              0.6        0          0          1                    
21851            CIRCULAR     0.6              0.6        0          0          1                    
21852            CIRCULAR     0.6              0.6        0          0          1                    
21854            CIRCULAR     1.2              1.2        0          0          1                    
21858            RECT_CLOSED  1.6              1.6        0          0          1                    
21859            RECT_CLOSED  1.27             1.8        0          0          1                    
21862            CIRCULAR     0.6              0.6        0          0          1                    
21864            RECT_CLOSED  0.3              0.3        0          0          1                    
21866            CIRCULAR     0.4              0.4        0          0          1                    
22116            CIRCULAR     0.4              0.4        0          0          1                    
22117            CIRCULAR     0.3              0.3        0          0          1                    
22282            RECT_CLOSED  0.35             0.2        0          0          1                    
22575            CIRCULAR     1                1          0          0          1                    
22576            CIRCULAR     0.3              0.3        0          0          1                    
22580            CIRCULAR     0.5              0.5        0          0          1                    
22581            CIRCULAR     0.3              0.3        0          0          1                    
22582            CIRCULAR     0.6              0.6        0          0          1                    
22583            CIRCULAR     0.3              0.3        0          0          1                    
22585            RECT_CLOSED  0.19             0.2        0          0          1                    
22586            CIRCULAR     0.8              0.8        0          0          1                    
22587            CIRCULAR     0.6              0.6        0          0          1                    
22588            CIRCULAR     0.8              0.8        0          0          1                    
22589            CIRCULAR     0.6              0.6        0          0          1                    
22590            RECT_CLOSED  1                1          0          0          1                    
22591            CIRCULAR     0.3              0.3        0          0          1                    
22592            RECT_CLOSED  0.47             0.3        0          0          1                    
22596            CIRCULAR     0.4              0.4        0          0          1                    
22597            CIRCULAR     0.4              0.4        0          0          1                    
22598            CIRCULAR     0.4              0.4        0          0          1                    
22599            CIRCULAR     0.3              0.3        0          0          1                    
22601            CIRCULAR     0.3              0.3        0          0          1                    
22605            CIRCULAR     0.8              0.8        0          0          1                    
22606            CIRCULAR     0.8              0.8        0          0          1                    
22607            CIRCULAR     1                1          0          0          1                    
22608            CIRCULAR     0.3              0.3        0          0          1                    
22609            CIRCULAR     0.3              0.3        0          0          1                    
22611            CIRCULAR     1                1          0          0          1                    
22612            CIRCULAR     0.8              0.8        0          0          1                    
22613            RECT_CLOSED  0.2              0.2        0          0          1                    
22614            CIRCULAR     0.6              0.6        0          0          1                    
22616            CIRCULAR     0.8              0.8        0          0          1                    
22617            CIRCULAR     0.3              0.3        0          0          1                    
22618            CIRCULAR     0.3              0.3        0          0          1                    
22621            CIRCULAR     0.3              0.3        0          0          1                    
22640            CIRCULAR     0.4              0.4        0          0          1                    
22643            CIRCULAR     1                1          0          0          1                    
22653            RECT_CLOSED  0.35             0.4        0          0          1                    
22654            CIRCULAR     0.3              0.3        0          0          1                    
22656            CIRCULAR     0.2              0.2        0          0          1                    
22658            CIRCULAR     0.4              0.4        0          0          1                    
22659            CIRCULAR     0.2              0.2        0          0          1                    
22660            CIRCULAR     0.8              0.8        0          0          1                    
22789            RECT_CLOSED  0.5              0.3        0          0          1                    
22790            RECT_CLOSED  0.5              0.3        0          0          1                    
22794            RECT_CLOSED  0.4              0.1        0          0          1                    
22795            RECT_CLOSED  0.4              0.2        0          0          1                    
22796            RECT_CLOSED  0.4              0.4        0          0          1                    
22797            RECT_CLOSED  0.15             0.15       0          0          1                    
22798            RECT_CLOSED  0.4              0.4        0          0          1                    
22799            RECT_CLOSED  0.7              0.5        0          0          1                    
22800            RECT_CLOSED  0.5              0.4        0          0          1                    
22801            RECT_CLOSED  0.4              0.2        0          0          1                    
22802            CIRCULAR     0.4              0.4        0          0          1                    
22804            CIRCULAR     0.4              0.4        0          0          1                    
22805            CIRCULAR     0.4              0.4        0          0          1                    
22810            RECT_CLOSED  0.5              0.4        0          0          1                    
22811            CIRCULAR     0.4              0.4        0          0          1                    
22812            CIRCULAR     0.4              0.4        0          0          1                    
22818            RECT_CLOSED  0.35             0.15       0          0          1                    
22819            RECT_CLOSED  0.5              0.4        0          0          1                    
22827            RECT_CLOSED  0.5              0.15       0          0          1                    
22837            CIRCULAR     0.4              0.4        0          0          1                    
22839            RECT_CLOSED  0.4              0.2        0          0          1                    
22840            CIRCULAR     0.3              0.3        0          0          1                    
22850            CIRCULAR     0.4              0.4        0          0          1                    
22852            CIRCULAR     0.4              0.4        0          0          1                    
22865            CIRCULAR     0.4              0.4        0          0          1                    
22866            CIRCULAR     0.4              0.4        0          0          1                    
23050            CIRCULAR     0.6              0.6        0          0          1                    
23053            CIRCULAR     0.6              0.6        0          0          1                    
23054            CIRCULAR     0.6              0.6        0          0          1                    
23059            CIRCULAR     0.6              0.6        0          0          1                    
23060            CIRCULAR     0.6              0.6        0          0          1                    
23062            CIRCULAR     0.6              0.6        0          0          1                    
23063            RECT_CLOSED  0.5              0.55       0          0          1                    
23064            CIRCULAR     0.6              0.6        0          0          1                    
23066            CIRCULAR     0.6              0.6        0          0          1                    
23071            CIRCULAR     0.3              0.3        0          0          1                    
23073            CIRCULAR     0.6              0.6        0          0          1                    
23075            CIRCULAR     0.6              0.6        0          0          1                    
23077            CIRCULAR     0.8              0.8        0          0          1                    
23078            CIRCULAR     0.6              0.6        0          0          1                    
23079            CIRCULAR     0.6              0.6        0          0          1                    
23081            CIRCULAR     0.8              0.8        0          0          1                    
23082            RECT_CLOSED  1.25             1.8        0          0          1                    
23083            RECT_CLOSED  1.25             1.8        0          0          1                    
23084            RECT_CLOSED  0.5              0.5        0          0          1                    
23085            RECT_CLOSED  1.25             1.8        0          0          1                    
23087            CIRCULAR     0.8              0.8        0          0          1                    
23088            CIRCULAR     0.8              0.8        0          0          1                    
23090            CIRCULAR     0.3              0.3        0          0          1                    
23092            CIRCULAR     0.7              0.7        0          0          1                    
23093            CIRCULAR     0.7              0.7        0          0          1                    
23094            RECT_CLOSED  1.25             1.8        0          0          1                    
23095            CIRCULAR     0.3              0.3        0          0          1                    
23097            RECT_CLOSED  1.25             1.8        0          0          1                    
23098            CIRCULAR     0.8              0.8        0          0          1                    
23099            RECT_CLOSED  1.27             1.8        0          0          1                    
23102            CIRCULAR     0.8              0.8        0          0          1                    
23110            CIRCULAR     0.8              0.8        0          0          1                    
23112            CIRCULAR     0.8              0.8        0          0          1                    
23113            CIRCULAR     0.4              0.4        0          0          1                    
23114            CIRCULAR     0.3              0.3        0          0          1                    
23115            RECT_CLOSED  1.25             1.8        0          0          1                    
23116            CIRCULAR     0.6              0.6        0          0          1                    
23117            CIRCULAR     0.6              0.6        0          0          1                    
23119            CIRCULAR     0.6              0.6        0          0          1                    
23120            CIRCULAR     0.6              0.6        0          0          1                    
23122            CIRCULAR     0.6              0.6        0          0          1                    
23123            CIRCULAR     0.6              0.6        0          0          1                    
23147            CIRCULAR     1                1          0          0          1                    
23148            CIRCULAR     0.3              0.3        0          0          1                    
23150            CIRCULAR     0.6              0.6        0          0          1                    
23152            CIRCULAR     0.5              0.5        0          0          1                    
23158            CIRCULAR     0.6              0.6        0          0          1                    
23159            CIRCULAR     0.6              0.6        0          0          1                    
23163            CIRCULAR     0.6              0.6        0          0          1                    
23164            CIRCULAR     0.6              0.6        0          0          1                    
23165            CIRCULAR     0.6              0.6        0          0          1                    
23167            CIRCULAR     0.6              0.6        0          0          1                    
23171            CIRCULAR     0.4              0.4        0          0          1                    
23172            CIRCULAR     0.6              0.6        0          0          1                    
23190            CIRCULAR     0.6              0.6        0          0          1                    
23191            CIRCULAR     0.6              0.6        0          0          1                    
23192            CIRCULAR     0.6              0.6        0          0          1                    
23193            CIRCULAR     0.3              0.3        0          0          1                    
23199            CIRCULAR     0.6              0.6        0          0          1                    
23200            RECT_CLOSED  1.37             0.7        0          0          1                    
23204            CIRCULAR     0.4              0.4        0          0          1                    
23207            CIRCULAR     0.6              0.6        0          0          1                    
23478            CIRCULAR     0.6              0.6        0          0          1                    
23524            CIRCULAR     0.4              0.4        0          0          1                    
25966            RECT_CLOSED  0.3              0.3        0          0          1                    
26838            CIRCULAR     0.8              0.8        0          0          1                    
26852            CIRCULAR     0.3              0.3        0          0          1                    
26855            CIRCULAR     0.3              0.3        0          0          1                    
27342            CIRCULAR     0.4              0.4        0          0          1                    
31188            CIRCULAR     0.6              0.6        0          0          1                    
31937            CIRCULAR     0.6              0.6        0          0          1                    
32535            CIRCULAR     0.16             0.16       0          0          1                    
34331            CIRCULAR     0.4              0.4        0          0          1                    
36494            CIRCULAR     0.4              0.4        0          0          1                    
38189            CIRCULAR     0.6              0.6        0          0          1                    
38190            CIRCULAR     0.5              0.5        0          0          1                    
38193            CIRCULAR     0.8              0.8        0          0          1                    
38250            CIRCULAR     0.4              0.4        0          0          1                    
38555            CIRCULAR     0.4              0.4        0          0          1                    
38575            RECT_CLOSED  0.4              0.1        0          0          1                    
38710            CIRCULAR     0.3              0.3        0          0          1                    
38711            CIRCULAR     0.4              0.4        0          0          1                    
38712            CIRCULAR     0.4              0.4        0          0          1                    
38869            CIRCULAR     0.25             0.25       0          0          1                    
38870            CIRCULAR     0.4              0.4        0          0          1                    
38873            RECT_CLOSED  0.65             0.45       0          0          1                    
38889            CIRCULAR     0.3              0.3        0          0          1                    
39004            CIRCULAR     0.4              0.4        0          0          1                    
39117            RECT_CLOSED  0.33             0.12       0          0          1                    
39149            CIRCULAR     0.3              0.3        0          0          1                    
39247            CIRCULAR     0.6              0.6        0          0          1                    
39284            CIRCULAR     0.8              0.8        0          0          1                    
39378            CIRCULAR     0.4              0.4        0          0          1                    
39379            CIRCULAR     0.2              0.2        0          0          1                    
39419            CIRCULAR     0.5              0.5        0          0          1                    
39469            CIRCULAR     0.3              0.3        0          0          1                    
39514            CIRCULAR     0.3              0.3        0          0          1                    
39537            CIRCULAR     0.6              0.6        0          0          1                    
39563            CIRCULAR     0.4              0.4        0          0          1                    
39936            CIRCULAR     0.4              0.4        0          0          1                    
39937            CIRCULAR     1                1          0          0          1                    
40173            RECT_CLOSED  1.6              1.6        0          0          1                    
40224            CIRCULAR     0.4              0.4        0          0          1                    
40244            CIRCULAR     0.6              0.6        0          0          1                    
40245            CIRCULAR     0.6              0.6        0          0          1                    
40248            CIRCULAR     0.4              0.4        0          0          1                    
40249            CIRCULAR     0.4              0.4        0          0          1                    
40372            CIRCULAR     0.4              0.4        0          0          1                    
40373            CIRCULAR     0.8              0.8        0          0          1                    
40386            CIRCULAR     0.6              0.6        0          0          1                    
40388            CIRCULAR     0.8              0.8        0          0          1                    
40448            CIRCULAR     0.25             0.25       0          0          1                    
40679            CIRCULAR     1                1          0          0          1                    
40680            CIRCULAR     1                1          0          0          1                    
40713            RECT_CLOSED  0.4              0.2        0          0          1                    
40793            CIRCULAR     0.4              0.4        0          0          1                    
41025            CIRCULAR     0.5              0.5        0          0          1                    
41038            CIRCULAR     0.6              0.6        0          0          1                    
41039            CIRCULAR     0.6              0.6        0          0          1                    
41097            CIRCULAR     0.3              0.3        0          0          1                    
41114            CIRCULAR     0.4              0.4        0          0          1                    
41149            CIRCULAR     0.4              0.4        0          0          1                    
41181            CIRCULAR     0.3              0.3        0          0          1                    
41182            CIRCULAR     0.3              0.3        0          0          1                    
41183            CIRCULAR     0.4              0.4        0          0          1                    
41204            CIRCULAR     0.8              0.8        0          0          1                    
41367            CIRCULAR     0.4              0.4        0          0          1                    
41543            CIRCULAR     0.6              0.6        0          0          1                    
41557            CIRCULAR     0.3              0.3        0          0          1                    
41561            CIRCULAR     1                1          0          0          1                    
41562            CIRCULAR     0.3              0.3        0          0          1                    
41661            CIRCULAR     0.6              0.6        0          0          1                    
41712            CIRCULAR     0.4              0.4        0          0          1                    
42042            CIRCULAR     0.3              0.3        0          0          1                    
42043            CIRCULAR     0.4              0.4        0          0          1                    
42079            CIRCULAR     0.3              0.3        0          0          1                    
42080            CIRCULAR     0.3              0.3        0          0          1                    
42081            CIRCULAR     0.6              0.6        0          0          1                    
42082            CIRCULAR     0.6              0.6        0          0          1                    
42085            CIRCULAR     0.6              0.6        0          0          1                    
42514            CIRCULAR     0.3              0.3        0          0          1                    
42515            CIRCULAR     0.4              0.4        0          0          1                    
42541            CIRCULAR     0.16             0.16       0          0          1                    
42568            CIRCULAR     1                1          0          0          1                    
42610            CIRCULAR     0.3              0.3        0          0          1                    
42644            CIRCULAR     0.16             0.16       0          0          1                    
42711            CIRCULAR     0.5              0.5        0          0          1                    
42712            CIRCULAR     0.5              0.5        0          0          1                    
42713            CIRCULAR     0.4              0.4        0          0          1                    
42714            CIRCULAR     0.4              0.4        0          0          1                    
42715            CIRCULAR     0.6              0.6        0          0          1                    
42716            CIRCULAR     0.4              0.4        0          0          1                    
42717            CIRCULAR     0.4              0.4        0          0          1                    
42718            CIRCULAR     0.6              0.6        0          0          1                    
42719            CIRCULAR     0.5              0.5        0          0          1                    
42720            CIRCULAR     0.4              0.4        0          0          1                    
42721            CIRCULAR     0.4              0.4        0          0          1                    
42722            CIRCULAR     0.6              0.6        0          0          1                    
42723            CIRCULAR     0.6              0.6        0          0          1                    
42724            CIRCULAR     0.8              0.8        0          0          1                    
42725            CIRCULAR     0.6              0.6        0          0          1                    
42726            CIRCULAR     0.6              0.6        0          0          1                    
42727            CIRCULAR     0.6              0.6        0          0          1                    
42728            CIRCULAR     0.4              0.4        0          0          1                    
42730            CIRCULAR     0.6              0.6        0          0          1                    
42731            CIRCULAR     0.4              0.4        0          0          1                    
42732            CIRCULAR     0.4              0.4        0          0          1                    
42733            CIRCULAR     0.4              0.4        0          0          1                    
42734            CIRCULAR     0.6              0.6        0          0          1                    
42735            CIRCULAR     0.4              0.4        0          0          1                    
42736            RECT_CLOSED  1.25             1.8        0          0          1                    
42737            CIRCULAR     0.5              0.5        0          0          1                    
42738            CIRCULAR     0.6              0.6        0          0          1                    
42739            CIRCULAR     0.6              0.6        0          0          1                    
42740            CIRCULAR     0.6              0.6        0          0          1                    
42742            CIRCULAR     0.4              0          0          0          1                    

[DWF]
;;Node           Constituent      Baseline   Patterns  
;;-------------- ---------------- ---------- ----------
G03160066        FLOW             2.4       
J03193093        FLOW             2.4       
J03193130        FLOW             2.7       
J03235081        FLOW             5.4       
J03235088        FLOW             5.5       
J03260047        FLOW             2.8       
J03260075        FLOW             2.8       
J03260174        FLOW             5         
J03260431        FLOW             6         
J03380175        FLOW             2.2       

[CURVES]
;;Name           Type       X-Value    Y-Value   
;;-------------- ---------- ---------- ----------
P1_DRY           Pump2      0          0         
P1_DRY                      0.05       0         
P1_DRY                      0.15       2         
P1_DRY                      0.3        4         
P1_DRY                      0.6        6         
P1_DRY                      1          8         
;
P2_DRY           Pump2      0          0         
P2_DRY           0.2        0         
P2_DRY           0.4        9.2       
P2_DRY           0.8        20.7      
P2_DRY           1.2        34.5      
P2_DRY           1.6        48.3      
P2_DRY           2          63.25     

MR_STORAGE       Storage    0          80.000    
MR_STORAGE       1          80.000    
MR_STORAGE       2          80.000    
MR_STORAGE       102        80.000    
[TIMESERIES]
;;Name           Date       Time       Value     
;;-------------- ---------- ---------- ----------
Rain_1Y                     0:00       0         
Rain_1Y                     0:05       12.5      
Rain_1Y                     0:10       12.5      
Rain_1Y                     0:15       12.5      
Rain_1Y                     0:20       12.5      
Rain_1Y                     0:25       12.5      
Rain_1Y                     0:30       12.5      
Rain_1Y                     0:35       12.5      
Rain_1Y                     0:40       12.5      
Rain_1Y                     0:45       12.5      
Rain_1Y                     0:50       12.5      
Rain_1Y                     0:55       12.5      
Rain_1Y                     1:00       12.5      
Rain_1Y                     1:05       12.5      
Rain_1Y                     1:10       12.5      
Rain_1Y                     1:15       12.5      
Rain_1Y                     1:20       12.5      
Rain_1Y                     1:25       12.5      
Rain_1Y                     1:30       12.5      
Rain_1Y                     1:35       12.5      
Rain_1Y                     1:40       12.5      
Rain_1Y                     1:45       12.5      
Rain_1Y                     1:50       12.5      
Rain_1Y                     1:55       12.5      
Rain_1Y                     2:00       0         
;
Rain_10Y                    0:00       0         
Rain_10Y                    0:05       40        
Rain_10Y                    0:10       40        
Rain_10Y                    0:15       40        
Rain_10Y                    0:20       40        
Rain_10Y                    0:25       40        
Rain_10Y                    0:30       40        
Rain_10Y                    0:35       40        
Rain_10Y                    0:40       40        
Rain_10Y                    0:45       40        
Rain_10Y                    0:50       40        
Rain_10Y                    0:55       40        
Rain_10Y                    1:00       40        
Rain_10Y                    1:05       40        
Rain_10Y                    1:10       40        
Rain_10Y                    1:15       40        
Rain_10Y                    1:20       40        
Rain_10Y                    1:25       40        
Rain_10Y                    1:30       40        
Rain_10Y                    1:35       40        
Rain_10Y                    1:40       40        
Rain_10Y                    1:45       40        
Rain_10Y                    1:50       40        
Rain_10Y                    1:55       40        
Rain_10Y                    2:00       0         
;
0                           0:00       0         
0                           1:00       0         
0                           2:00       0         

[REPORT]
;;Reporting Options
SUBCATCHMENTS ALL
NODES ALL
LINKS ALL

[TAGS]

[MAP]
DIMENSIONS 470235.513 3359198.081 472326.932 3360369.390
Units      None

[COORDINATES]
;;Node           X-Coord            Y-Coord           
;;-------------- ------------------ ------------------
G03160065        471737.141         3359300.072       
G03160066        471739.385         3359299.221       
G03160068        471741.340         3359329.014       
G03160069        471730.372         3359330.647       
G03160070        471733.915         3359330.122       
G03160073        471731.205         3359311.383       
J03010003        472144.017         3359512.178       
J03160546        471933.170         3359339.615       
J03160705        472022.872         3359333.024       
J03165846        470670.010         3359390.457       
J03166590        471857.599         3359349.351       
J03166604        471933.214         3359345.875       
J03166622        471201.241         3359405.908       
J03166623        471221.615         3359404.789       
J03176807        470974.622         3359351.696       
J03176811        470413.334         3359683.942       
J03176902        470408.642         3359938.317       
J03180001        470411.397         3360001.671       
J03180002        470411.371         3359986.113       
J03180003        470413.797         3359986.109       
J03180004        470415.854         3359986.053       
J03180005        470408.234         3359957.369       
J03180006        470410.921         3359956.969       
J03180007        470412.862         3359957.095       
J03180008        470409.905         3359948.781       
J03180009        470410.462         3359936.190       
J03180010        470408.379         3359936.269       
J03180011        470409.143         3359923.222       
J03180015        470407.065         3359923.341       
J03180019        470409.053         3359892.552       
J03180020        470406.682         3359883.891       
J03180022        470407.484         3359871.527       
J03180025        470408.834         3359854.207       
J03180026        470409.503         3359844.469       
J03180030        470411.049         3359813.290       
J03180031        470408.972         3359813.303       
J03180032        470413.440         3359813.301       
J03180034        470412.852         3359782.317       
J03180037        470406.202         3359784.231       
J03180039        470412.778         3359757.308       
J03180043        470413.020         3359730.423       
J03180046        470413.108         3359703.225       
J03180049        470413.170         3359681.797       
J03180052        470413.225         3359656.755       
J03180056        470413.323         3359629.825       
J03180060        470413.439         3359611.880       
J03180062        470415.667         3359602.780       
J03180063        470413.523         3359602.876       
J03180074        470412.883         3359575.795       
J03180075        470415.816         3359576.046       
J03180077        470409.389         3359571.234       
J03180079        470411.560         3359548.451       
J03180080        470413.641         3359548.520       
J03180081        470416.023         3359548.343       
J03180082        470416.137         3359521.554       
J03180083        470413.847         3359521.461       
J03180084        470411.626         3359521.132       
J03180086        470416.364         3359500.760       
J03180087        470413.940         3359500.467       
J03180088        470411.709         3359500.357       
J03180090        470411.736         3359473.717       
J03180092        470414.087         3359473.498       
J03180093        470416.197         3359473.250       
J03180094        470416.884         3359472.928       
J03180097        470415.959         3359462.458       
J03180098        470416.818         3359462.515       
J03180100        470413.847         3359462.440       
J03180102        470411.251         3359457.234       
J03180103        470411.103         3359452.633       
J03180105        470413.363         3359452.594       
J03180106        470415.494         3359452.289       
J03180107        470416.260         3359452.312       
J03180109        470413.045         3359445.290       
J03180111        470412.891         3359440.387       
J03180113        470410.271         3359435.849       
J03180114        470409.891         3359430.815       
J03180116        470409.800         3359426.485       
J03180118        470412.297         3359430.183       
J03180119        470414.381         3359430.198       
J03180120        470415.210         3359430.123       
J03180124        470408.862         3359412.987       
J03189802        470915.298         3359415.755       
J03189803        470900.133         3359415.473       
J03189833        470518.000         3359408.636       
J03189834        470518.078         3359406.949       
J03189835        470527.043         3359408.045       
J03189836        470493.658         3359407.978       
J03189837        470493.703         3359407.737       
J03189838        470499.188         3359406.730       
J03189839        470493.577         3359408.193       
J03189840        470467.625         3359407.567       
J03189841        470467.979         3359405.683       
J03189842        470476.998         3359406.579       
J03189843        470445.021         3359406.889       
J03189844        470444.845         3359405.238       
J03189845        470419.810         3359406.735       
J03189846        470419.790         3359404.816       
J03189847        470400.209         3359406.330       
J03189848        470399.863         3359406.323       
J03190001        471052.123         3359914.325       
J03190002        471052.758         3359913.199       
J03190004        471050.838         3359909.943       
J03190007        471080.442         3359900.615       
J03190008        471085.710         3359904.644       
J03190010        471088.416         3359883.836       
J03190012        471083.870         3359883.413       
J03190013        471090.670         3359852.409       
J03190014        471092.505         3359853.374       
J03190015        471097.223         3359853.917       
J03190022        471104.173         3359819.192       
J03190025        471106.795         3359819.016       
J03190026        471110.771         3359819.174       
J03190027        471100.160         3359774.848       
J03190028        471102.095         3359774.629       
J03190029        471106.685         3359774.077       
J03190030        471096.649         3359731.724       
J03190031        471097.385         3359732.261       
J03190032        471102.828         3359734.639       
J03190034        471120.681         3359712.702       
J03190039        471158.537         3359706.659       
J03190042        471198.016         3359700.895       
J03190044        471240.342         3359692.788       
J03190045        471237.545         3359694.675       
J03190048        471276.905         3359688.737       
J03190051        471316.241         3359682.725       
J03190055        471355.678         3359676.749       
J03190059        471369.240         3359671.729       
J03190061        471393.867         3359665.404       
J03190064        471447.162         3359656.861       
J03190067        471486.620         3359650.871       
J03190070        471525.846         3359645.010       
J03190078        471549.167         3359641.513       
J03190083        471570.334         3359638.545       
J03190084        471576.051         3359637.202       
J03190085        471574.704         3359634.479       
J03190088        471612.064         3359635.881       
J03190089        471612.944         3359638.364       
J03190091        471651.557         3359633.881       
J03190092        471652.136         3359635.547       
J03190094        471691.252         3359631.993       
J03190096        471687.914         3359617.874       
J03190102        471730.826         3359627.513       
J03190106        471766.141         3359623.700       
J03190107        471810.219         3359617.794       
J03190111        471849.676         3359613.089       
J03190114        471888.245         3359607.111       
J03190117        471927.965         3359602.158       
J03190120        471969.665         3359597.294       
J03190121        471969.150         3359598.221       
J03190123        472010.806         3359586.188       
J03190124        472011.015         3359592.124       
J03190128        472050.573         3359586.477       
J03190129        472082.854         3359583.661       
J03190130        472083.807         3359584.550       
J03190133        472125.098         3359570.548       
J03190134        472125.908         3359573.072       
J03190138        472143.854         3359548.879       
J03190142        472141.625         3359469.903       
J03190145        472139.938         3359425.443       
J03190147        472137.865         3359371.032       
J03190149        471529.445         3359535.846       
J03190150        471531.572         3359521.956       
J03190155        471523.792         3359469.558       
J03190159        471527.105         3359492.835       
J03190161        471525.395         3359492.706       
J03190162        471528.414         3359499.777       
J03190164        471526.151         3359498.489       
J03190167        471529.478         3359507.104       
J03190839        471700.312         3359372.012       
J03190840        471693.911         3359372.454       
J03191001        472132.839         3359321.073       
J03191002        471539.728         3359592.311       
J03191003        471538.637         3359592.390       
J03191004        471542.178         3359592.045       
J03191005        471542.324         3359592.655       
J03191007        471537.980         3359574.372       
J03191008        471539.450         3359575.580       
J03191010        471539.273         3359574.215       
J03191015        471539.123         3359572.607       
J03191016        471535.689         3359549.893       
J03191017        471534.683         3359543.626       
J03191019        471534.848         3359542.974       
J03191021        471532.684         3359543.308       
J03191023        471529.924         3359538.978       
J03191100        471521.574         3359474.769       
J03191101        471526.839         3359519.901       
J03191102        471525.309         3359511.131       
J03191103        471532.610         3359542.433       
J03191950        471540.509         3359596.939       
J03191951        471540.713         3359583.036       
J03191952        471539.174         3359573.333       
J03191956        471528.936         3359502.844       
J03191983        471699.079         3359615.923       
J03192002        471530.877         3359527.281       
J03192077        471542.383         3359593.948       
J03193034        471575.591         3359608.884       
J03193036        471734.786         3359587.147       
J03193037        471721.832         3359588.363       
J03193038        471726.259         3359588.054       
J03193045        471739.130         3359586.475       
J03193051        471743.711         3359586.140       
J03193057        471758.625         3359584.708       
J03193062        471760.102         3359583.891       
J03193063        471761.438         3359583.686       
J03193064        471777.470         3359581.921       
J03193078        471802.331         3359578.921       
J03193080        471813.079         3359577.696       
J03193081        471841.994         3359573.989       
J03193083        471878.734         3359566.763       
J03193085        471874.877         3359569.745       
J03193093        471870.216         3359497.703       
J03193094        471867.854         3359480.015       
J03193097        471866.763         3359464.534       
J03193099        471867.267         3359459.649       
J03193100        471866.262         3359459.744       
J03193103        471864.274         3359429.946       
J03193104        471863.801         3359433.327       
J03193105        471864.283         3359428.856       
J03193110        471865.134         3359391.677       
J03193113        471865.055         3359373.271       
J03193114        471865.904         3359398.259       
J03193117        471865.336         3359386.622       
J03193121        471864.681         3359366.008       
J03193123        471905.787         3359563.959       
J03193126        471921.970         3359563.342       
J03193127        471920.841         3359562.536       
J03193128        471928.689         3359562.614       
J03193130        471930.484         3359563.284       
J03193131        471943.187         3359561.239       
J03193137        471954.707         3359560.167       
J03193141        471964.193         3359559.223       
J03193142        471964.937         3359561.837       
J03193143        471967.674         3359562.195       
J03193145        471991.391         3359558.749       
J03193146        471992.584         3359558.611       
J03193149        472007.733         3359556.458       
J03193150        472007.457         3359557.047       
J03193152        472004.246         3359557.004       
J03193154        472003.738         3359570.302       
J03193155        472004.074         3359575.806       
J03193162        472078.414         3359560.670       
J03193164        472078.037         3359553.352       
J03193167        472061.623         3359555.554       
J03193169        472040.954         3359558.418       
J03193170        472024.145         3359554.806       
J03193173        472040.965         3359542.999       
J03195537        471385.349         3359395.450       
J03195666        471877.587         3359567.528       
J03195750        471866.584         3359462.933       
J03195943        471521.678         3359476.065       
J03195944        471379.798         3359668.709       
J03195988        471514.927         3359430.002       
J03195991        471621.397         3359621.256       
J03196571        471355.177         3359396.119       
J03196573        471342.203         3359397.608       
J03196577        472125.713         3359329.388       
J03196579        471988.171         3359342.155       
J03198004        471618.284         3359624.808       
J03198005        471665.647         3359620.706       
J03233000        470420.251         3359388.759       
J03235001        470421.222         3359388.989       
J03235002        470420.717         3359381.350       
J03235003        470420.211         3359380.051       
J03235004        470422.674         3359371.048       
J03235006        470421.725         3359371.438       
J03235007        470422.950         3359366.554       
J03235013        470420.636         3359367.235       
J03235014        470422.963         3359356.962       
J03235018        470422.241         3359356.491       
J03235019        470421.397         3359357.104       
J03235024        470419.589         3359356.666       
J03235029        470420.715         3359354.713       
J03235031        470422.830         3359326.420       
J03235032        470419.860         3359348.563       
J03235041        470423.333         3359331.099       
J03235042        470424.870         3359331.284       
J03235045        470423.503         3359339.038       
J03235046        470424.761         3359338.603       
J03235049        470422.292         3359336.647       
J03235051        470423.418         3359331.275       
J03235052        470425.628         3359331.572       
J03235056        470425.622         3359326.649       
J03235058        470422.336         3359325.734       
J03235068        470425.944         3359313.855       
J03235069        470424.368         3359314.171       
J03235075        470423.519         3359314.832       
J03235080        470423.828         3359311.639       
J03235081        470426.265         3359307.764       
J03235088        470428.602         3359311.747       
J03260024        470526.498         3360216.611       
J03260025        470526.378         3360217.355       
J03260026        470571.823         3360220.087       
J03260027        470572.307         3360221.467       
J03260028        470571.844         3360214.884       
J03260029        470620.386         3360214.562       
J03260030        470621.180         3360216.439       
J03260031        470620.652         3360209.903       
J03260032        470660.273         3360201.053       
J03260033        470661.379         3360209.092       
J03260034        470662.022         3360210.493       
J03260038        470710.094         3360194.153       
J03260041        470754.140         3360171.524       
J03260047        470877.161         3360101.086       
J03260048        470879.135         3360105.750       
J03260049        470880.240         3360106.851       
J03260050        470921.048         3360078.546       
J03260051        470922.878         3360083.553       
J03260052        470923.650         3360084.650       
J03260054        470959.735         3360064.285       
J03260055        470958.369         3360063.129       
J03260058        470967.477         3360031.492       
J03260059        470972.848         3360032.098       
J03260060        470973.944         3360032.523       
J03260061        470960.372         3360037.316       
J03260062        470963.218         3359990.004       
J03260063        470964.997         3359989.652       
J03260064        470969.635         3359988.787       
J03260065        470957.531         3359950.970       
J03260066        470958.039         3359947.599       
J03260067        470958.966         3359947.939       
J03260075        471027.728         3359919.590       
J03260076        471030.575         3359912.263       
J03260077        471029.398         3359908.263       
J03260079        471026.145         3359896.500       
J03260080        471022.803         3359883.734       
J03260081        471021.265         3359878.121       
J03260082        471018.608         3359867.280       
J03260085        471019.393         3359852.654       
J03260086        471014.208         3359851.821       
J03260087        471012.965         3359849.106       
J03260088        471012.207         3359848.150       
J03260090        471006.113         3359825.979       
J03260093        470999.939         3359801.679       
J03260095        470993.860         3359777.479       
J03260097        470988.489         3359752.966       
J03260099        470985.437         3359728.137       
J03260147        470395.696         3360001.345       
J03260148        470395.630         3360002.734       
J03260149        470412.920         3360001.359       
J03260150        470413.147         3360005.232       
J03260151        470445.165         3360000.007       
J03260154        470477.211         3359995.024       
J03260156        470488.148         3359993.129       
J03260157        470498.812         3359990.697       
J03260159        470508.676         3359987.392       
J03260160        470506.650         3359988.100       
J03260161        470510.624         3359986.914       
J03260162        470532.819         3359981.824       
J03260164        470553.445         3359976.359       
J03260166        470573.991         3359970.980       
J03260167        470574.267         3359972.336       
J03260170        470594.946         3359965.571       
J03260171        470628.852         3359956.489       
J03260172        470639.048         3359953.688       
J03260174        470639.443         3359955.226       
J03260401        470985.210         3359719.598       
J03260403        470983.871         3359703.129       
J03260404        470983.253         3359678.019       
J03260405        470982.204         3359652.914       
J03260406        470982.354         3359651.668       
J03260407        470981.555         3359625.866       
J03260408        470980.594         3359600.806       
J03260409        470980.755         3359601.917       
J03260410        470980.064         3359575.812       
J03260411        470979.975         3359574.525       
J03260412        470979.436         3359550.696       
J03260413        470979.251         3359552.666       
J03260414        470978.817         3359521.678       
J03260415        470978.278         3359520.841       
J03260416        470979.138         3359517.819       
J03260417        470978.931         3359516.862       
J03260418        470978.099         3359494.549       
J03260419        470982.489         3359497.542       
J03260421        470977.223         3359463.288       
J03260422        470976.627         3359438.136       
J03260424        470972.481         3359408.714       
J03260425        470972.537         3359404.747       
J03260426        470975.410         3359381.649       
J03260427        470974.875         3359376.137       
J03260429        470974.288         3359352.829       
J03260431        470972.381         3359330.681       
J03260532        470957.251         3359394.301       
J03260533        470955.289         3359398.883       
J03260534        470955.686         3359398.023       
J03260536        470958.849         3359423.493       
J03260538        470959.231         3359447.180       
J03260539        470953.558         3359454.499       
J03260541        470958.529         3359454.563       
J03260542        470959.250         3359470.961       
J03260544        470954.200         3359471.236       
J03260546        470959.918         3359496.125       
J03260547        470960.540         3359496.586       
J03260548        470959.480         3359518.577       
J03260550        470960.308         3359545.613       
J03260551        470961.459         3359546.257       
J03260555        470962.224         3359546.262       
J03260558        470955.624         3359556.301       
J03260559        470958.301         3359555.985       
J03260560        470961.473         3359555.779       
J03260561        470962.019         3359571.305       
J03260562        470955.292         3359572.480       
J03260564        470962.606         3359596.486       
J03260566        470963.537         3359621.598       
J03260567        470964.406         3359620.608       
J03260568        470964.109         3359646.642       
J03260569        470965.308         3359647.431       
J03260571        470965.007         3359671.796       
J03260572        470965.970         3359670.620       
J03260574        470965.670         3359696.970       
J03260575        470966.832         3359697.995       
J03260577        470966.377         3359721.976       
J03260578        470963.115         3359721.844       
J03261001        470803.272         3360135.698       
J03261009        470499.121         3360212.874       
J03261010        470499.447         3360214.669       
J03261011        470500.428         3360209.771       
J03261012        470500.463         3360208.144       
J03261013        470462.823         3360204.310       
J03261014        470461.587         3360209.014       
J03261015        470462.000         3360210.910       
J03262001        470803.259         3360135.677       
J03262003        470801.307         3360113.010       
J03262004        470801.211         3360106.140       
J03262008        470798.073         3360094.708       
J03262029        470844.414         3360117.883       
J03262030        470846.746         3360124.036       
J03262031        470845.684         3360122.496       
J03262068        470793.456         3360075.749       
J03262069        470793.047         3360073.140       
J03262070        470791.838         3360069.904       
J03262073        470796.716         3360075.188       
J03262074        470796.153         3360072.859       
J03262075        470790.270         3360046.958       
J03262076        470789.552         3360043.889       
J03262078        470786.370         3360044.313       
J03262079        470784.314         3360045.716       
J03262080        470791.689         3360052.640       
J03262083        470787.330         3360034.513       
J03262093        470783.510         3360018.403       
J03262094        470793.633         3360062.172       
J03262095        470794.123         3360063.567       
J03262096        470787.403         3360011.532       
J03262097        470789.602         3360009.730       
J03262098        470795.322         3360008.434       
J03262099        470792.378         3360012.511       
J03262100        470794.280         3360012.222       
J03262101        470799.293         3360011.723       
J03262102        470798.766         3360015.655       
J03262106        470792.970         3360017.402       
J03262113        470806.599         3360010.957       
J03262114        470802.916         3360007.779       
J03262119        470830.657         3360002.914       
J03262120        470813.383         3360007.290       
J03262121        470833.579         3360008.331       
J03262126        470780.843         3360012.950       
J03262127        470778.948         3360011.967       
J03262128        470778.271         3360013.846       
J03262795        470526.060         3360127.447       
J03263001        470519.092         3360188.111       
J03263002        470521.319         3360175.075       
J03263004        470522.667         3360171.781       
J03263005        470524.055         3360171.679       
J03263007        470520.858         3360167.294       
J03263010        470521.100         3360158.818       
J03263011        470521.569         3360154.616       
J03263012        470523.208         3360154.798       
J03263015        470526.387         3360153.708       
J03263016        470522.621         3360195.005       
J03263017        470519.768         3360145.239       
J03263018        470519.360         3360138.040       
J03263024        470518.925         3360133.053       
J03263039        470520.001         3360123.467       
J03263049        470525.124         3360105.139       
J03263052        470519.056         3360100.427       
J03263053        470522.565         3360078.201       
J03263054        470522.444         3360085.529       
J03263057        470521.137         3360071.737       
J03263058        470517.843         3360071.952       
J03263061        470522.421         3360056.441       
J03263063        470522.185         3360064.482       
J03263075        470516.050         3360040.991       
J03263078        470519.555         3360040.467       
J03263079        470522.390         3360043.133       
J03263080        470509.042         3360014.219       
J03263081        470504.881         3360016.347       
J03263082        470509.080         3360016.147       
J03264861        470425.902         3359390.470       
J03264862        470426.415         3359392.331       
J03264872        470607.504         3359395.167       
J03264875        470661.522         3359395.053       
J03264876        470660.277         3359395.988       
J03264882        470767.554         3359397.885       
J03264883        470769.409         3359397.965       
J03264891        470898.006         3359399.338       
J03264892        470897.352         3359401.162       
J03264894        470925.893         3359401.348       
J03264900        470477.847         3359991.944       
J03264960        470444.939         3360013.123       
J03264964        470411.573         3360014.737       
J03265000        470994.795         3359497.248       
J03265001        471004.135         3359496.823       
J03266226        470522.047         3360040.514       
J03266227        470522.035         3360039.408       
J03266669        470455.095         3360008.877       
J03266670        470411.660         3360011.985       
J03266695        470964.957         3359721.861       
J03266696        470966.066         3359697.783       
J03266698        470965.378         3359670.877       
J03266706        470980.737         3359496.127       
J03266707        470952.769         3359415.545       
J03351040        470422.572         3359390.267       
J03351041        470425.478         3359390.935       
J03351042        470426.303         3359391.187       
J03351044        470453.673         3359391.665       
J03351046        470479.049         3359392.304       
J03351047        470477.777         3359391.872       
J03351048        470477.956         3359391.433       
J03351049        470504.359         3359392.739       
J03351051        470529.638         3359393.273       
J03351053        470529.437         3359392.442       
J03351056        470582.282         3359394.428       
J03351058        470608.505         3359395.111       
J03351067        470634.067         3359395.492       
J03351068        470661.379         3359395.982       
J03351070        470666.231         3359395.693       
J03351071        470670.069         3359391.406       
J03351072        470686.579         3359396.479       
J03351075        470712.718         3359396.817       
J03351076        470740.504         3359397.434       
J03351078        470768.481         3359397.987       
J03351080        470793.757         3359398.577       
J03351083        470819.129         3359399.138       
J03351085        470819.377         3359398.114       
J03351086        470819.555         3359389.124       
J03351087        470846.345         3359399.564       
J03351089        470871.807         3359400.152       
J03351092        470897.240         3359400.267       
J03351093        470897.092         3359399.630       
J03351094        470924.666         3359401.289       
J03351095        470924.643         3359400.549       
J03351097        470951.675         3359403.105       
J03352001        470930.835         3359415.990       
J03352003        470908.241         3359415.652       
J03352004        470862.480         3359414.673       
J03352005        470851.634         3359414.493       
J03352007        470826.434         3359414.110       
J03352009        470797.136         3359413.349       
J03352010        470795.912         3359413.472       
J03352011        470773.931         3359412.786       
J03352013        470749.869         3359412.602       
J03352014        470748.575         3359412.399       
J03352015        470733.276         3359412.177       
J03352016        470732.225         3359411.990       
J03352017        470707.212         3359411.477       
J03352018        470706.100         3359411.739       
J03352026        470593.341         3359409.355       
J03352027        470592.156         3359409.567       
J03352028        470575.057         3359409.204       
J03352029        470568.168         3359408.678       
J03352030        470567.009         3359409.041       
J03352031        470543.121         3359408.194       
J03352032        470541.855         3359408.599       
J03352033        470517.977         3359407.689       
J03352034        470516.881         3359408.086       
J03352035        470492.884         3359407.147       
J03352036        470491.517         3359407.662       
J03352037        470467.692         3359406.586       
J03352038        470466.554         3359407.125       
J03352039        470453.990         3359407.347       
J03352041        470444.589         3359406.253       
J03352042        470420.655         3359406.316       
J03352043        470419.476         3359405.577       
J03352045        470399.984         3359405.547       
J03352046        470398.770         3359405.846       
J03352144        470453.893         3359406.224       
J03355147        470468.732         3359392.174       
J03380002        472108.950         3359333.362       
J03380007        472081.843         3359335.221       
J03380010        472049.834         3359337.483       
J03380014        472019.786         3359339.694       
J03380016        471989.531         3359342.008       
J03380018        471989.830         3359348.013       
J03380025        471959.511         3359344.158       
J03380029        471930.403         3359346.395       
J03380032        471900.241         3359348.516       
J03380033        471900.704         3359353.842       
J03380034        471901.236         3359358.254       
J03380037        471864.116         3359356.549       
J03380040        471863.194         3359351.038       
J03380042        471835.254         3359353.061       
J03380046        471800.308         3359353.794       
J03380047        471800.267         3359355.640       
J03380053        471769.200         3359357.801       
J03380055        471738.499         3359366.742       
J03380056        471738.012         3359360.240       
J03380057        471737.379         3359353.503       
J03380058        471731.602         3359354.332       
J03380060        471704.400         3359356.294       
J03380065        471662.225         3359359.493       
J03380071        471641.121         3359361.113       
J03380073        471619.977         3359362.533       
J03380075        471604.076         3359363.772       
J03380076        471602.727         3359363.842       
J03380077        471598.928         3359364.253       
J03380079        471577.836         3359365.854       
J03380081        471556.726         3359367.377       
J03380083        471535.670         3359369.054       
J03380085        471514.582         3359370.602       
J03380088        471508.368         3359371.065       
J03380089        471493.526         3359372.113       
J03380092        471472.399         3359373.623       
J03380095        471451.472         3359375.071       
J03380096        471430.261         3359376.714       
J03380098        471409.077         3359378.342       
J03380100        471387.982         3359379.873       
J03380102        471366.947         3359381.345       
J03380104        471345.651         3359382.719       
J03380106        471322.779         3359384.327       
J03380109        471310.962         3359384.971       
J03380113        471301.511         3359385.904       
J03380117        471292.343         3359386.494       
J03380120        471276.826         3359387.728       
J03380124        471258.156         3359388.940       
J03380127        471236.819         3359390.297       
J03380129        471235.325         3359390.464       
J03380131        471217.707         3359391.375       
J03380136        471196.414         3359392.773       
J03380137        471184.088         3359392.568       
J03380142        471173.193         3359393.146       
J03380145        471154.076         3359393.678       
J03380148        471132.955         3359394.256       
J03380152        471111.915         3359394.965       
J03380155        471090.748         3359395.551       
J03380159        471069.660         3359396.188       
J03380162        471048.464         3359396.717       
J03380165        471043.683         3359396.898       
J03380166        471023.756         3359396.869       
J03380170        471006.223         3359398.084       
J03380173        470982.928         3359395.310       
J03380175        471010.966         3359413.300       
J03380177        471031.825         3359412.401       
J03380178        471053.034         3359411.999       
J03380180        471052.980         3359408.945       
J03380182        471074.149         3359411.368       
J03380184        471095.180         3359410.648       
J03380186        471116.239         3359410.066       
J03380188        471137.479         3359409.363       
J03380190        471160.975         3359408.434       
J03380195        471201.054         3359407.428       
J03380197        471222.092         3359406.577       
J03380198        471221.977         3359403.538       
J03380199        471243.149         3359405.293       
J03380200        471243.096         3359402.355       
J03380201        471264.197         3359403.957       
J03380203        471264.709         3359406.677       
J03380204        471274.596         3359405.827       
J03380206        471264.119         3359401.071       
J03380207        471289.135         3359402.301       
J03380209        471290.540         3359401.899       
J03380210        471290.537         3359399.275       
J03380211        471311.738         3359400.596       
J03380212        471311.491         3359397.601       
J03380213        471332.848         3359398.809       
J03380215        471339.852         3359398.781       
J03380218        471355.421         3359397.510       
J03380219        471376.662         3359396.220       
J03380221        471395.739         3359394.570       
J03380223        471416.549         3359392.848       
J03380224        471416.415         3359389.967       
J03380225        471437.765         3359391.637       
J03380227        471446.533         3359391.333       
J03380228        471458.913         3359389.916       
J03380230        471479.934         3359388.516       
J03380231        471479.657         3359385.376       
J03380232        471498.965         3359386.651       
J03380235        471509.478         3359386.161       
J03380236        471513.833         3359428.827       
J03380237        471514.620         3359428.727       
J03380238        471520.835         3359469.666       
J03380239        471519.880         3359385.423       
J03380240        471519.837         3359388.189       
J03380241        471519.790         3359382.591       
J03380243        471540.873         3359383.954       
J03380245        471562.008         3359382.252       
J03380248        471582.954         3359380.494       
J03380252        471604.190         3359379.279       
J03380254        471606.539         3359379.211       
J03380255        471607.378         3359379.104       
J03380256        471625.292         3359377.700       
J03380258        471665.480         3359374.574       
J03380260        471686.627         3359373.022       
J03380262        471707.765         3359371.465       
J03380264        471728.830         3359369.939       
J03380265        471752.089         3359367.322       
J03380266        471750.722         3359360.396       
J03380267        471738.616         3359369.193       
J03380272        471794.361         3359364.958       
J03380280        471858.067         3359345.136       
J03380281        471750.195         3359353.012       
J03380282        471737.705         3359355.247       
J03380284        471746.785         3359352.784       
J03380286        471756.726         3359351.515       
J03380287        471771.867         3359351.485       
J03380288        471756.845         3359352.501       
J03380289        471780.175         3359350.635       
J03380290        471792.670         3359350.007       
J03380291        471803.808         3359349.199       
J03380292        471800.710         3359349.391       
J03380293        471814.573         3359348.298       
J03380295        471834.193         3359346.930       
J03380299        471861.329         3359344.800       
J03380301        471891.569         3359342.610       
J03380302        471901.645         3359341.869       
J03380305        471926.788         3359340.166       
J03380307        471939.796         3359339.265       
J03380310        471948.069         3359338.660       
J03380316        471958.189         3359338.078       
J03380318        471970.674         3359336.912       
J03380322        471995.853         3359335.008       
J03380323        471995.770         3359339.521       
J03380325        471994.589         3359332.481       
J03380327        472000.534         3359334.780       
J03380328        472015.759         3359333.452       
J03380331        472000.844         3359332.034       
J03380332        472032.994         3359332.151       
J03380335        472058.259         3359330.502       
J03380346        472089.478         3359328.175       
J03380349        472098.330         3359327.536       
J03380352        472122.797         3359325.849       
J03380356        472128.979         3359331.897       
J03388007        472133.000         3359331.844       
J03411012        470389.577         3360011.631       
J03411013        470390.513         3360012.121       
J03411014        470414.747         3360012.046       
J03411015        470411.734         3360012.383       
J03411016        470454.058         3360009.253       
J03411017        470455.093         3360009.564       
J03411018        470483.009         3360004.367       
J03411019        470484.129         3360004.784       
J03411020        470491.172         3360002.533       
J03411021        470500.844         3360000.634       
J03411079        470502.871         3360002.792       
J03411080        470492.139         3360005.448       
J03411081        470492.841         3360012.972       
J03411083        470414.887         3360014.451       
J03464880        470984.364         3359719.543       
J06103061        470505.460         3360002.606       
J06103062        470504.804         3359999.618       
J03260010        472192.706         3359507.226       

[VERTICES]
;;Link           X-Coord            Y-Coord           
;;-------------- ------------------ ------------------

[Polygons]
;;Subcatchment   X-Coord            Y-Coord           
;;-------------- ------------------ ------------------
S1               470957.531         3359950.970       
S1               470861.213         3359912.575       
S1               470814.796         3359867.950       
S1               470408.834         3359854.207       
S1               470330.578         3360017.056       
S1               470399.812         3360246.914       
S1               470593.669         3360316.149       
S1               470860.914         3360208.143       
S1               471056.155         3360062.750       
S1               470957.531         3359950.970       
S2               470957.531         3359950.970       
S2               471056.155         3360062.750       
S2               471015.721         3359905.007       
S2               470977.877         3359775.496       
S2               470981.376         3359745.315       
S2               470984.364         3359719.543       
S2               470974.828         3359704.583       
S2               470968.658         3359428.712       
S2               470958.849         3359423.493       
S2               470964.519         3359377.240       
S2               470492.586         3359355.174       
S2               470463.508         3359262.400       
S2               470401.197         3359255.476       
S2               470365.195         3359369.021       
S2               470369.349         3359434.101       
S2               470379.210         3359836.189       
S2               470408.834         3359854.207       
S2               470814.796         3359867.950       
S2               470861.213         3359912.575       
S2               470957.531         3359950.970       
S3               471056.155         3360062.750       
S3               471144.498         3359878.088       
S3               471162.222         3359769.086       
S3               471405.928         3359712.369       
S3               471563.672         3359660.969       
S3               471556.582         3359551.080       
S3               471520.762         3359344.499       
S3               471000.827         3359375.080       
S3               470988.622         3359317.275       
S3               470962.487         3359318.727       
S3               470964.519         3359377.240       
S3               470958.849         3359423.493       
S3               470968.658         3359428.712       
S3               470974.828         3359704.583       
S3               470984.364         3359719.543       
S3               470981.376         3359745.315       
S3               470977.877         3359775.496       
S3               471056.155         3360062.750       
S4               471520.762         3359344.499       
S4               471556.582         3359551.080       
S4               471680.650         3359536.015       
S4               471838.394         3359507.656       
S4               471846.476         3359329.140       
S4               471796.565         3359328.005       
S4               471791.425         3359251.322       
S4               471711.113         3359256.861       
S4               471700.036         3359327.480       
S4               471520.762         3359344.499       
S5               471838.394         3359507.656       
S5               472111.344         3359526.515       
S5               472231.867         3359519.177       
S5               472180.468         3359438.532       
S5               472152.995         3359302.057       
S5               471846.476         3359329.140       
S5               471838.394         3359507.656       
S6               472231.867         3359519.177       
S6               472111.344         3359526.515       
S6               471838.394         3359507.656       
S6               471556.582         3359551.080       
S6               471563.672         3359660.969       
S6               471885.363         3359664.514       
S6               472199.964         3359599.821       
S6               472231.867         3359519.177       

[SYMBOLS]
;;Gage           X-Coord            Y-Coord           
;;-------------- ------------------ ------------------
RG1              471052.961         3359744.605       

